 # Version information for this restart file 
 # current date 2024-03-19 19:14:04.543
 # current working dir /home/mp6576/comp-class-2023/comp-lab-class-2023/Week12/Runs/Proton
 # Program compiled at                              Sat Dec 12 18:27:15 EST 2020
 # Program compiled on                                         cs001.nyu.cluster
 # Program compiled for                                                nyu-intel
 # Source code revision number                                       git:8c64c6e
 &GLOBAL
   PRINT_LEVEL  LOW
   PROJECT_NAME proton_aimd_1ns_every0.5fs
   RUN_TYPE  MD
   WALLTIME 21600
 &END GLOBAL
 &MOTION
   &GEO_OPT
     OPTIMIZER  BFGS
     MAX_ITER  100
     MAX_DR     3.0000000000000001E-03
     &BFGS
     &END BFGS
   &END GEO_OPT
   &MD
     ENSEMBLE  NVT
     STEPS  2000
     TIMESTEP     4.9999999999999994E-01
     STEP_START_VAL  1000
     TIME_START_VAL     4.9999999999999636E+02
     ECONS_START_VAL    -1.1018977434131896E+03
     TEMPERATURE     3.0000000000000000E+02
     &THERMOSTAT
       TYPE  GLE
       REGION  MASSIVE
       &GLE
         NDIM  5
         A_SCALE     1.0000000000000000E+00
         A_LIST     1.8595758612559999E+02    2.7263853498399998E-01    1.1526100454610001E+01   -3.6414578262600003E+01 \
             2.3173375816020001E+02
         A_LIST    -2.7809524712060002E-01    8.5951591808710006E-05    7.2189048017650004E-01   -1.9844539343859999E-01 \
             4.2409257583420001E-01
         A_LIST    -1.4825808131210000E+01   -7.2189048017650004E-01    1.3590902121280000E+00    5.1498896280349999E+00 \
            -9.9949268450990001E+00
         A_LIST    -1.0372189126880000E+01    1.9844539343859999E-01   -5.1498896280349999E+00    2.6661910891169999E+01 \
             1.1507715495310000E+01
         A_LIST     2.1801346360420001E+02   -4.2409257583420001E-01    9.9949268450990001E+00   -1.1507715495310000E+01 \
             3.0958394565589998E+02
         &THERMOSTAT_ENERGY
              -1.6846010170327897E-03
              -1.3883765133729281E-03
              -9.6794633094989717E-04
              -2.1306366122476115E-03
              -9.9095039549797325E-03
               2.0130040102897288E-03
               1.1836672702650083E-03
              -4.4604867531715681E-03
               1.1260685332415907E-02
               2.4800124735657892E-03
               9.1304195514160524E-03
              -4.2437973469047242E-03
               4.4027466996440197E-03
              -9.0053158214272420E-03
               9.0790213523426130E-03
              -6.8789681754140965E-03
               1.0835044552985431E-03
              -6.4204544054362791E-03
               3.7811547459516140E-03
              -2.8761456751032516E-03
               5.4009538647095115E-03
               5.2409098408272908E-03
              -7.3535999640447040E-03
               8.5468154843972906E-03
              -3.4470272417548844E-03
              -6.2981295955914628E-03
              -2.1383522970898944E-03
               5.3969385901624489E-03
               1.5331779244059712E-03
               1.8554988735202836E-03
              -1.1895119241519708E-02
               3.3856194810507941E-03
               7.9467657705490323E-03
               1.2617635029775569E-03
              -1.2934358325469117E-02
               1.3274166663449201E-02
              -2.6980178727520447E-03
               9.3979178716893620E-04
               2.5551026990932825E-03
              -4.1763063098614493E-03
               1.9543328336622252E-03
               8.0199399393325599E-04
               2.9736662223216735E-03
               6.0694781519576293E-03
              -5.2604571966232755E-03
               9.9301704731235459E-03
               3.7527000247103758E-06
              -8.1752442463041007E-04
               5.5815017343749758E-03
              -5.0013790289551302E-03
               6.4387597164828675E-03
               1.2041038100384602E-02
              -4.0078140693277182E-03
               6.1301671200514555E-03
              -2.7407992260069756E-03
              -7.7336229027435228E-04
              -4.9153989179901542E-04
               3.7406027571897644E-03
               2.0379425653038077E-03
               2.7705687781912451E-03
              -7.4015767502692252E-03
              -7.8954374326822580E-06
               1.1611272215701610E-02
               4.2336285216909107E-03
               2.1985201156715147E-03
               1.4122378563353323E-03
              -2.7345382338164435E-03
               1.0369854823022968E-04
               9.1493480861691984E-03
              -6.4287642161447967E-04
               1.0179033841010981E-03
              -8.5303018636580675E-03
              -3.4198766138163412E-03
               6.4677539931349238E-03
              -1.4543103698152820E-03
              -1.0682615904909126E-02
               6.3154532852713425E-03
               8.7456716740632809E-03
               8.1907066644322738E-03
              -5.8090039689205428E-03
              -4.4871116325262625E-03
              -2.9958947379465344E-03
               3.2664476945612124E-03
              -2.1109567572165245E-03
               2.1193382738014912E-03
               4.3082187996171979E-03
               6.2703923506946509E-03
               7.7520868299999391E-04
               4.8699908083952885E-03
              -7.6336945335229653E-03
               4.6111815257090698E-03
              -2.6373240382382437E-03
               2.6091313912893926E-03
               8.7165096452571046E-04
              -1.6404758347706657E-02
               8.9508386803544351E-03
               2.5945824324621544E-03
               1.6601611687505251E-03
               4.6504106587118375E-03
               4.5537432904147615E-03
               9.0594598560216778E-03
              -2.6388502424986543E-03
              -3.3236227949012477E-03
               1.7438756777865924E-02
               6.8974761532568190E-04
               8.8000473401404107E-03
               1.7632240605648712E-02
               1.6060148291295148E-02
               4.0798891303160181E-03
              -3.7674399589464106E-03
              -1.2673291548176218E-03
              -7.9595763075628653E-03
               7.1635497467839124E-03
               5.9378427043444123E-03
               5.4160484721432591E-03
              -7.7868930850285775E-05
              -9.4729731236299266E-03
               1.2410972737771186E-03
               8.3637675020819190E-04
               2.0750593999070929E-03
              -1.3814032148878044E-03
               2.0340649732873825E-05
               1.7378956551710133E-03
              -2.4450110183706565E-03
               1.3322176514240466E-03
               6.9566733983965475E-05
               2.8248442938835368E-03
              -1.5991170414762614E-03
               7.9746034536600505E-04
              -8.9110088817513852E-03
              -1.2389598067825226E-02
               4.9485398409236624E-03
               3.7612682760134173E-03
               1.6903170094826241E-03
               5.3883065067209957E-03
               5.7566960038132886E-04
              -2.6120881611798046E-03
              -8.3434379088795727E-03
               4.5684290382377929E-03
              -5.6973658419852188E-03
               6.1603475336320067E-03
               9.4587742157966979E-03
              -3.8963213883891873E-05
              -9.0201736537793738E-03
              -2.4701340584950735E-03
              -2.4357149120101595E-03
               4.2901301642112146E-03
              -1.0148973902700397E-03
              -5.1524832457617523E-03
              -3.7794362346258155E-03
               5.8696935085971336E-04
               6.9528854514863681E-03
              -3.7051268839172554E-03
               3.8338402030816798E-03
               2.2622770493807196E-03
               5.5309829587810925E-04
               3.0590746405465422E-03
              -1.2017219581277458E-03
              -2.4821647471462134E-04
               2.1558831447207054E-03
               4.3726148715665693E-03
               1.9868395546218691E-03
              -2.7253738863147062E-03
               3.9442777928375556E-04
               6.8233740969589956E-03
               1.2691850849266493E-02
               4.9242991647627807E-04
              -9.4828507138219314E-03
              -6.0023859430977135E-03
               1.7878939830028235E-03
               1.7793208168264951E-03
               6.2956384584847034E-03
              -2.3940370058352888E-03
               6.3351969793663584E-03
               2.0354909454069361E-01
               2.6100401937877601E-02
               2.0695985328329624E-02
               7.4084862040536444E-03
               2.2974382503617502E-03
              -7.7366564546728946E-03
               2.3209829905189208E-01
               8.5076903579679689E-02
               2.6514150785327956E-02
              -7.4635358754139257E-03
               3.8821823207717920E-03
               3.5593170321376348E-03
               7.3180677634941118E-03
              -2.7121036373574719E-03
               1.4714761396110511E-04
              -7.8556547734515581E-03
              -1.2490675971373619E-03
               5.0737230302274052E-03
               5.1924052907916841E-04
              -6.1351820658339250E-04
               3.4709217304243626E-03
               8.9849321957946038E-03
               4.6251148547251676E-05
              -2.3707178310976278E-03
              -2.0581236746489680E-03
              -3.3416927782037933E-03
               2.0564215463136923E-03
               8.9853932909633846E-04
              -1.8321442123648292E-03
               1.2919032635797581E-03
              -5.8301813560770865E-03
              -7.6354914034823520E-03
               6.9063600681245731E-03
               2.9665957145726838E-03
              -2.8574099263775810E-03
               1.2609816253086078E-02
              -6.8829225735362745E-03
               4.8046289805356345E-03
               9.0044556625525629E-03
               2.8183404563166380E-03
              -8.4683531261239425E-03
               1.6980086717103041E-03
              -6.0807022612361997E-03
               1.1280631504046377E-02
               3.0939127391179564E-03
               2.9104442145074360E-03
              -1.3315559549432750E-04
               2.5507496515694166E-03
              -9.3992946634191676E-03
               2.2263451422101623E-03
               4.2951154566071839E-03
               6.1275736764992263E-03
              -3.3126122555605458E-03
               8.6583184306842135E-04
              -6.4229237051408533E-03
               7.6633553020282396E-04
              -3.2571932091808118E-03
               3.6800333573533154E-03
              -4.0729697474080504E-03
               4.9988250436349552E-03
               9.8415051778181790E-03
              -1.5577627476789559E-03
              -2.7044138608729516E-03
               3.5781092709840753E-03
              -1.3282031648845368E-03
              -3.1672678060957880E-04
              -1.1947980712212133E-04
               3.4066155127431249E-03
               3.4623829627926685E-03
               2.1513753907428548E-03
              -5.3267161024316088E-03
              -1.5567669195037210E-04
              -1.3219215574872900E-03
               5.1503675539186524E-04
              -4.7822525344675621E-03
              -5.7768948296912769E-03
               1.1458869600597256E-02
               7.0916269767783363E-04
              -3.0347205693835541E-03
               3.4115198098918970E-03
               7.9956460712449183E-03
              -3.5358735372709579E-03
              -5.9652205510982255E-03
               1.4085977665844298E-04
              -8.2018680328360457E-03
              -9.2485435380685070E-05
               9.1701468950989538E-03
               2.6311055175935313E-03
               5.4847097719455456E-03
               5.9193063672639996E-04
               3.8350199116562837E-03
               6.7494693132189287E-05
              -1.7564389506067729E-03
              -9.8302792469272303E-04
              -2.3830409462220624E-03
               4.6876098234682733E-03
               3.6352582435275470E-02
              -1.5203941018119816E-03
               3.9201128830118094E-02
              -1.6506925310017444E-03
               7.2594203554293625E-04
               1.9806014628895000E-03
               2.4009921763201479E-03
               8.3328809136345924E-03
              -6.7899364124812222E-04
              -2.7890381445656165E-04
              -3.2373425585942943E-03
              -7.0425284647746772E-03
               3.3207062070336538E-03
              -6.7451423067887957E-03
               9.1640769054086874E-03
               1.0777127939621948E-03
              -4.3865780427562919E-03
              -6.6797816064440366E-03
               8.9161169851059638E-03
               6.3004991085835156E-03
              -1.9934205573808855E-03
               1.1721451413557421E-03
               1.8926984211899206E-03
               2.7771446420905756E-03
              -4.1934288984303257E-03
               4.2408550370864190E-03
               6.5445163749506841E-05
               5.8002277403730726E-03
              -1.5994798340447007E-03
              -7.9936475796365831E-03
              -5.1340457493158440E-04
               8.8384745464453697E-04
               1.8008533441841064E-03
               9.0189897623595625E-03
               4.2564041156794843E-03
              -4.2160476779594660E-03
              -3.5142124533259237E-03
              -9.2613418334589904E-03
               5.2950526784019515E-03
               6.6837897992286068E-03
              -5.0964003200131664E-04
               4.4227681145128641E-03
               9.6358138719629862E-03
               1.5461590918178064E-02
               4.3400081630156863E-03
               4.9361406662828435E-03
               3.1845075837899535E-03
               4.0248896948867144E-03
              -4.3246054217741803E-03
               1.1078410102490319E-03
               4.8007365635242610E-03
              -2.6336998697678651E-03
              -3.9796381385181680E-03
               9.0442110714537648E-05
              -1.4915239125127403E-03
               4.0468685892713326E-03
               5.8853249134027544E-03
               4.6883820723696082E-03
              -1.8256081651700013E-04
               1.9583306845191032E-03
              -1.8343671085445834E-03
               1.0316770010600695E-03
               1.8621300021268199E-04
              -5.3160392694612518E-03
              -4.1828160120727228E-03
               1.0241151973604072E-03
               5.2046270559156539E-03
              -5.2034451137744132E-04
              -1.9466404003751403E-03
               2.0404110583519797E-03
              -4.0687021774953279E-03
              -1.8018010923647953E-03
               7.6004960274088859E-03
               7.8014260902892719E-03
               1.5014802631117181E-03
               5.0037331156511126E-03
              -5.8005364107329045E-04
              -5.4875632499324263E-03
               5.8286662416057455E-03
               4.1270134244508197E-03
              -1.2355537350570770E-03
              -4.5364393969869949E-04
              -8.9633514060782453E-03
               7.5054903529529447E-03
              -1.1086630615455932E-03
              -2.0150939073143108E-03
               1.6592882081301100E-03
               5.9427064395748104E-03
              -7.9052766599844969E-03
               1.2914083512253154E-04
              -8.2464419518945946E-04
               4.7559243328977778E-03
               7.8361730896577084E-03
               2.8020156169833764E-03
              -4.2833313263396970E-03
               4.8111861665791960E-03
               9.7489718765963983E-03
              -4.5184652583431608E-04
              -1.5843900238214591E-02
              -5.3674030209374425E-03
              -2.2277098684453799E-03
               3.9423163892067315E-03
               8.4453101854525792E-04
              -5.2505037871802699E-05
              -1.7788840538813947E-03
              -8.1665879638258554E-03
              -3.7470848445350885E-03
               1.4650036506360729E-03
              -5.1103121081488168E-03
               6.5439013784371128E-03
               4.1906805295416939E-03
               1.4167786178650842E-03
               1.0380195952555091E-04
              -2.1043564194270538E-03
              -1.5011743651127958E-02
              -5.3701761947952285E-03
               1.2430152947120491E-02
               6.1000815848871216E-03
               2.7528384541305314E-03
               2.9628254265397684E-03
              -5.2396509617888692E-03
               2.1367235019821352E-03
              -2.4679753441832521E-03
              -8.5188060612688046E-03
               1.0395179586370314E-02
               3.4484500724016065E-03
              -1.0674783019382823E-03
               9.7646452243684424E-04
               3.7233549889843839E-03
              -3.0395431013376661E-03
              -3.2081657301555088E-03
               1.0139416187742939E-03
              -3.0373093935359111E-03
               1.6119092538952653E-04
               1.4562466683929316E-04
               6.7803902498371807E-04
               7.0434875185976340E-04
              -5.1216654763457693E-03
              -6.8685193830568124E-04
               6.5491452288572206E-03
               2.3844544260861354E-03
              -5.7549214425029990E-04
              -5.6690097806625912E-04
              -1.8759158840507637E-03
               8.7619086406825314E-06
              -1.7833110016467202E-03
               4.9070386414673678E-03
              -4.8303219174608596E-04
               7.5683462026237430E-04
               3.1383998372850352E-03
               1.0665574068205964E-02
              -2.8090691007107036E-03
              -6.4313465613576254E-03
              -4.8658551556150682E-03
               5.1617922742232302E-03
               4.9050088031309183E-03
               6.1027238521045406E-04
              -4.4524773976054267E-03
               4.0519956420642390E-04
               4.5301529914930560E-03
              -5.4592848769851642E-03
              -6.1970490016070240E-03
              -1.1208512851381884E-02
               1.2739314225222655E-04
               1.0876855446915631E-02
               4.5485764705738788E-03
              -7.8320502425148161E-04
               1.4935598275292572E-04
              -2.0262278306753599E-03
               1.5948228549886082E-03
               2.5967660590245868E-03
              -2.2438759467949426E-03
               2.1334202861310421E-03
               3.9506117309600370E-03
               5.8057478188507268E-05
               6.2605129125117729E-03
               5.9467395333855583E-03
               9.7394348262458807E-03
              -3.5852261641239433E-04
              -9.8332142110647714E-03
              -1.4701198737414674E-03
              -2.5984931631432965E-03
               5.1170884903914641E-03
              -2.4820415931929404E-03
              -1.0675484804365360E-03
              -5.3907364515285508E-03
              -2.0210308007960020E-03
               5.3508894237051458E-03
              -5.1431397135587057E-03
              -5.2913399827271609E-03
               3.8620225988300172E-04
               1.5301613082437398E-02
              -3.5001403461883285E-03
               3.4581043344373385E-03
               1.0030628985347699E-02
               3.4649778639775876E-03
              -5.0972637363821370E-03
              -3.6647969774945945E-03
               3.2986903835065286E-03
              -2.6961681791914660E-03
               5.3173056238970209E-04
              -8.3997470429067553E-04
               5.7701212232395705E-03
              -1.9153345300302800E-03
               6.2570156128485084E-04
               4.1644607432613483E-03
              -2.8731714026487614E-03
               1.7622613305006346E-04
               2.6074293316189659E-03
               5.6908873455294867E-04
              -3.4279366215641789E-03
               5.7559312227077315E-04
               3.7370739140995153E-03
               5.7004738387314699E-03
              -2.5086654235679259E-04
              -2.2150420708005767E-03
              -3.6383578062564904E-03
               2.7364744925651523E-03
               1.8031902499487185E-03
               1.6889778600087245E-03
               6.1186039600618790E-04
               6.6815132172635128E-03
               4.5897500440713222E-03
              -7.7762034495983557E-03
               3.3326353374045953E-04
               4.3780495599922290E-03
               1.1453808289291049E-03
               2.9977292667156662E-03
               8.3832722662418434E-03
               2.5832328884058992E-03
              -1.6688280670206521E-03
               4.2747452415649537E-03
              -1.3547744154978621E-02
               1.6920291339312752E-02
              -3.9227117619106419E-03
              -7.5545729405500309E-03
               8.5693885729655960E-04
               5.3654047279046106E-03
               3.7402258995502674E-03
               3.9130474627483856E-04
               2.3799434398456055E-03
               2.4081043229176118E-03
              -2.5432701924375553E-03
              -9.5693335500467436E-03
               7.3822638800810246E-03
              -7.0490594207361368E-03
              -4.5924416960316777E-03
               3.1207124122298409E-03
               1.5077232171897766E-04
               1.5292923994668021E-03
              -9.9342003732574430E-03
               3.8872785420788350E-03
               1.1278986558982619E-03
               1.2145248250800069E-03
               2.5086820224361683E-03
               8.3403106360479954E-05
              -5.8606759373670148E-03
              -8.5331151658757343E-04
              -2.1043233451569030E-03
               1.5323198519881362E-03
               1.0222965966448744E-02
               2.4843833539449122E-03
              -3.7558562854865625E-03
              -2.8102871954014774E-03
               5.1551367976461352E-03
               2.7561299735479896E-03
               3.5250810429225362E-04
              -4.6079673747282217E-03
               1.5401353891282608E-05
               8.2178922301640207E-03
               7.9856324012811245E-04
              -1.3868180139396742E-03
              -6.9896831881528527E-03
               7.4461980602699154E-04
               1.2660291550358215E-03
              -2.8955792911760274E-03
              -3.7879510092642224E-04
               3.8330449967464170E-03
               3.6572288441842093E-03
              -1.4880092486483521E-03
               2.5596846480055182E-03
               3.5566960446164943E-04
               2.6138933573122908E-03
               2.0812512337992067E-03
              -1.2529419929082177E-03
              -8.2716307870188271E-03
              -1.2887299693167128E-03
              -6.7532038626135823E-03
               4.9477360324730844E-04
               1.2361083546965105E-03
               6.4115230467084493E-03
               1.4726131133489394E-03
               3.1557455655175635E-03
              -6.4636895723976990E-04
              -6.0814277755084738E-03
              -7.9617720476020241E-04
               2.8391544096222311E-03
              -6.5607424333307784E-04
               6.2125678237939219E-05
              -1.8278784504691177E-03
              -2.8760891206323601E-03
               3.4231124034365479E-03
              -3.2080264855253306E-03
              -1.0785389569386974E-02
              -3.6405816078968848E-04
              -1.9151914672245777E-03
               9.3973304831255714E-03
               1.1240477321069782E-02
              -7.8761511027292900E-03
         &END THERMOSTAT_ENERGY
         &RNG_INIT
Wiener process for Thermostat # 1        1 F T T  -9.8236738167888460E-01         226733040.0        4248387519.0        1164353849.0        2758509449.0        3644127687.0        1764793484.0             12345.0             12345.0             12345.0             12345.0             12345.0             12345.0             12345.0             12345.0             12345.0             12345.0             12345.0             12345.0
Wiener process for Thermostat # 2        1 F T T  -1.4171306107827426E+00        1528154308.0        2775625301.0         197130159.0        1452211673.0        1835562137.0        1983376171.0        3692455944.0        1366884236.0        2968912127.0         335948734.0        4161675175.0         475798818.0        3692455944.0        1366884236.0        2968912127.0         335948734.0        4161675175.0         475798818.0
Wiener process for Thermostat # 3        1 F T T   8.6049543281786645E-01        2248570378.0        1724762616.0          52903713.0        3229622658.0        3199004837.0        4241126217.0        1015873554.0        1310354410.0        2249465273.0         994084013.0        2912484720.0        3876682925.0        1015873554.0        1310354410.0        2249465273.0         994084013.0        2912484720.0        3876682925.0
Wiener process for Thermostat # 4        1 F T T  -1.5460863137690717E+00         957380376.0         510326667.0        2247033635.0        2033071685.0        3054261466.0        3462352516.0        2338701263.0        1119171942.0        2570676563.0         317077452.0        3194180850.0         618832124.0        2338701263.0        1119171942.0        2570676563.0         317077452.0        3194180850.0         618832124.0
Wiener process for Thermostat # 5        1 F T T   1.5428690481661575E-01        4203301200.0         738999836.0        1485820986.0          20648636.0        2223680357.0        4294941489.0        1597262096.0        3906379055.0        3312112953.0        1016013135.0        4099474108.0         275305423.0        1597262096.0        3906379055.0        3312112953.0        1016013135.0        4099474108.0         275305423.0
Wiener process for Thermostat # 6        1 F T T   7.0411917217518150E-01        1265311014.0        3687607523.0        1792102642.0         142025920.0         459804801.0        1211121065.0          97147054.0        3131372450.0         829345164.0        3691032523.0        3006063034.0        4259826321.0          97147054.0        3131372450.0         829345164.0        3691032523.0        3006063034.0        4259826321.0
Wiener process for Thermostat # 7        1 F T T  -9.5744195640119531E-02        4040223344.0        4246262317.0         329086624.0          28777921.0        2946509694.0        1489700490.0         796079799.0        2105258207.0         955365076.0        2923159030.0        4116632677.0        3067683584.0         796079799.0        2105258207.0         955365076.0        2923159030.0        4116632677.0        3067683584.0
Wiener process for Thermostat # 8        1 F T T  -1.2413826789147817E-01         252045112.0        2848200345.0         154646410.0        1271924195.0        1873079261.0        3351978939.0        3281794178.0        2616230133.0        1457051261.0        2762791137.0        2480527362.0        2282316169.0        3281794178.0        2616230133.0        1457051261.0        2762791137.0        2480527362.0        2282316169.0
Wiener process for Thermostat # 9        1 F T T   1.0331244080464512E+00        3784506675.0        1914172684.0        3527875272.0        1610827989.0        3855196701.0        1117597481.0        3777646647.0        1837464056.0        4204654757.0         664239048.0        4190510072.0        2959195122.0        3777646647.0        1837464056.0        4204654757.0         664239048.0        4190510072.0        2959195122.0
Wiener process for Thermostat # 10       1 F T T   2.1466585360569199E-01        3057685686.0        2869029583.0         411221469.0        2821893460.0         322924656.0        1143227575.0        4215590817.0        3862461878.0        1087200967.0        1544910132.0         936383720.0        1611370123.0        4215590817.0        3862461878.0        1087200967.0        1544910132.0         936383720.0        1611370123.0
Wiener process for Thermostat # 11       1 F T T  -4.4132046785776799E-02        1554543736.0        2717576499.0        4135075403.0        2618383353.0         642871762.0         249586537.0        1683636369.0         362165168.0         814316280.0         869382050.0         980203903.0        2062101717.0        1683636369.0         362165168.0         814316280.0         869382050.0         980203903.0        2062101717.0
Wiener process for Thermostat # 12       1 F T T  -5.6161533877704317E-01        1770324141.0        3770017049.0         190859559.0         764828178.0        2918138424.0         736540625.0         272317999.0         166758548.0         310112982.0         201045826.0        1680231254.0         118290799.0         272317999.0         166758548.0         310112982.0         201045826.0        1680231254.0         118290799.0
Wiener process for Thermostat # 13       1 F T T   9.7554409384929153E-01        3627045108.0        1898589428.0        2752141753.0          85759421.0        2499273175.0        1137986601.0        2245755202.0        1652682525.0        2865544364.0         721509566.0         209733568.0         592362218.0        2245755202.0        1652682525.0        2865544364.0         721509566.0         209733568.0         592362218.0