 # Version information for this restart file 
 # current date 2024-03-19 21:17:52.151
 # current working dir /home/mp6576/comp-class-2023/comp-lab-class-2023/Week12/Runs/Proton
 # Program compiled at                              Sat Dec 12 18:27:15 EST 2020
 # Program compiled on                                         cs001.nyu.cluster
 # Program compiled for                                                nyu-intel
 # Source code revision number                                       git:8c64c6e
 &GLOBAL
   PRINT_LEVEL  LOW
   PROJECT_NAME proton_aimd_1ns_every0.5fs
   RUN_TYPE  MD
   WALLTIME 21600
 &END GLOBAL
 &MOTION
   &GEO_OPT
     OPTIMIZER  BFGS
     MAX_ITER  100
     MAX_DR     3.0000000000000001E-03
     &BFGS
     &END BFGS
   &END GEO_OPT
   &MD
     ENSEMBLE  NVT
     STEPS  2000
     TIMESTEP     4.9999999999999994E-01
     STEP_START_VAL  1999
     TIME_START_VAL     9.9949999999998238E+02
     ECONS_START_VAL    -1.1018977434131896E+03
     TEMPERATURE     3.0000000000000000E+02
     &THERMOSTAT
       TYPE  GLE
       REGION  MASSIVE
       &GLE
         NDIM  5
         A_SCALE     1.0000000000000000E+00
         A_LIST     1.8595758612559999E+02    2.7263853498399998E-01    1.1526100454610001E+01   -3.6414578262600003E+01 \
             2.3173375816020001E+02
         A_LIST    -2.7809524712060002E-01    8.5951591808710006E-05    7.2189048017650004E-01   -1.9844539343859999E-01 \
             4.2409257583420001E-01
         A_LIST    -1.4825808131210000E+01   -7.2189048017650004E-01    1.3590902121280000E+00    5.1498896280349999E+00 \
            -9.9949268450990001E+00
         A_LIST    -1.0372189126880000E+01    1.9844539343859999E-01   -5.1498896280349999E+00    2.6661910891169999E+01 \
             1.1507715495310000E+01
         A_LIST     2.1801346360420001E+02   -4.2409257583420001E-01    9.9949268450990001E+00   -1.1507715495310000E+01 \
             3.0958394565589998E+02
         &THERMOSTAT_ENERGY
               2.2016779120340585E-03
               7.3453177297376265E-04
               2.2226349646250550E-03
              -1.1208306884788292E-03
              -1.4182109965064579E-02
               1.3010268604966913E-03
              -3.2857090966088550E-03
               1.5761288376338906E-03
               1.0953842443305512E-02
               4.7355963801495898E-04
               7.4438164561083740E-03
               4.8400179050546357E-03
               7.5296290211654673E-03
              -9.2973819999111161E-03
               9.1654509106488986E-03
              -8.2594030515022142E-03
              -6.0405153086438620E-03
              -5.7998619331177939E-03
               1.5282686198759758E-03
              -2.0653613269546928E-04
               6.1708265895124492E-03
               9.5038747302076138E-03
              -1.3066188200678858E-02
               2.4941130022409649E-03
               7.1798115314583074E-03
              -4.0434362565286508E-03
              -2.0241325207620594E-03
               7.8855449188688573E-04
               9.1454485732136374E-04
               6.1094535461991882E-04
              -8.0246324981669958E-03
              -3.5092334699576106E-03
               4.4318123264051497E-03
               3.0962138574406198E-03
              -7.8379903640077801E-03
               1.1994315242108575E-02
              -1.0207551205767419E-03
              -3.8331129516179074E-03
               8.3270486485478791E-04
               1.0660637795606397E-03
              -2.8770813202345059E-05
              -1.3616632375162479E-02
              -4.3685090644968909E-03
               8.5571668278689381E-03
               5.0863004669952847E-03
               5.4174648275678609E-03
               3.8553439346066800E-04
              -4.4238621701360248E-03
               9.4708883772263736E-03
              -7.8631771434768231E-03
               9.4365966338420416E-03
               8.6617151465003990E-03
              -2.3688384685313160E-03
               8.7423997957305349E-03
              -5.5705262716325126E-03
              -5.0839541800102867E-04
               2.0491780303310658E-04
               4.8090633270948674E-03
               3.1869784685878604E-03
               6.0622105919981041E-04
              -8.4933227205629680E-03
              -1.8993010363764602E-03
               1.9232826945974182E-02
               2.1328548606972534E-04
               6.6286062238439959E-04
               5.1428257356093748E-03
              -9.7578790570813298E-03
               5.4690068269987622E-03
               1.7141491754857043E-02
              -1.2076209527186101E-03
              -6.2839361737495264E-03
              -2.0961702427880879E-03
              -7.4451047470950917E-03
               6.9348438159918301E-03
              -3.2224848779164247E-03
              -1.5346645338047330E-02
               7.2052663193309290E-03
               2.3500676766924303E-02
               1.2845176607014978E-02
              -7.7871472075251510E-03
              -1.7263759405016200E-03
              -1.1294328797547052E-02
               5.8758406107595404E-03
               3.8904285969837411E-03
              -1.5448575053245899E-03
               5.7790080740369315E-03
               5.6256888371399331E-03
              -1.3260753715510493E-02
               3.8523315697045141E-03
              -6.0974642457369719E-03
               4.9440679027413126E-04
              -3.4917949778122538E-03
              -1.1158144119960073E-03
              -8.2287837665849933E-03
              -1.1747092117696051E-02
               8.0383947875824965E-03
               6.3446926291675426E-03
              -2.1735378487593923E-03
               1.0092227218651346E-02
               1.8362478335562575E-03
               9.1369022226448181E-03
              -9.3446142928848581E-03
              -5.1762016989997973E-03
               1.5178464891227419E-02
              -3.0612757005319068E-03
               9.1021119036249452E-03
               1.4933437241174786E-02
               1.6146445185199726E-02
               5.2172476790209752E-03
              -5.3303077588238859E-03
               1.4072482681533947E-03
              -1.1422034468374798E-03
               1.1142672410431933E-02
              -1.5941062338708624E-03
               1.1154409786912180E-03
              -8.5685202617894838E-03
              -4.2425997470836689E-03
               4.8178699236069624E-03
              -1.7582219289536283E-03
               1.4425809384600702E-03
               6.5206765139681150E-03
               7.1484634710678755E-03
              -7.3765873370562523E-03
              -6.3268202770226942E-03
               2.8209470175778444E-03
              -2.0709130398333933E-03
               3.7720825475283416E-03
              -3.1850990656379485E-03
              -6.0381980508409999E-04
               3.5388948535283135E-03
              -8.4122504882052571E-03
               1.9820078438027280E-04
              -1.4770029623732868E-03
              -3.5375214005813737E-03
               8.5531206799021042E-03
               1.3720361087138349E-03
              -3.4650203008253907E-03
              -7.5856061921620649E-03
              -2.3459120876152071E-03
              -1.7780161359215586E-03
               4.8776424598820740E-03
               7.5974170785733201E-03
               3.7829242892920036E-03
              -6.6056243581490365E-03
              -3.0178280161587256E-03
              -2.1238060471209215E-03
               2.0810376596775478E-03
               9.3264235828862882E-03
              -9.8528171403606916E-03
              -4.2259676750236296E-03
              -1.5733096618545200E-02
               5.7755025865061892E-03
               3.9242635660395727E-03
               7.3608272429862877E-03
               7.8622200628959103E-03
               1.9389123314113030E-03
              -5.4429506002877273E-04
               1.0639202757221872E-02
              -7.5805296192858343E-03
              -2.9279250636594042E-03
               1.2211238155378707E-02
              -2.4149192866281554E-03
              -1.9904994731649180E-03
               2.2600152171637620E-03
               1.7582016768357168E-02
               2.5457190680151020E-02
               4.6366964058200278E-03
              -2.9883894795520789E-02
               5.7769124553906223E-03
               9.7502383054867171E-03
              -8.8592818681731411E-03
               4.7719512679208174E-03
              -5.0209027605677007E-04
              -3.1128173162719565E-03
               1.9832174677331715E-01
               2.6250313465652243E-02
               2.5102243240442662E-02
               8.2295343352180219E-03
              -9.7564039607807643E-04
              -9.3077179141523216E-03
               2.4027951692098085E-01
               8.3852331199092023E-02
               3.3181686438942100E-02
              -6.2911591226726474E-03
               5.4715717131297199E-03
               1.9032561734743745E-03
               1.4788981005360628E-02
              -8.5635670969189445E-03
              -2.2196907691813088E-03
              -3.0326639851610826E-03
              -8.8400399172377069E-03
               5.2849949103895635E-03
               1.1408587783213525E-02
               1.9737513339298661E-03
               2.2156430577214684E-03
               1.9522849836324946E-03
              -5.5323589261191191E-03
               4.7842693469064054E-03
              -7.9305079598208650E-03
               2.0127115116899664E-03
               3.1192047701292507E-03
               1.9983726047851920E-03
              -2.8228867161120782E-03
               2.4584932969246255E-03
              -1.0588810470326695E-02
              -7.4996062146104672E-03
               2.5752758536947682E-03
               1.3576685822407049E-02
              -1.1941953218951961E-02
               2.1442126303323643E-02
              -4.8779087153675552E-04
              -1.0523828037546979E-03
               4.6438596040203799E-03
               4.5724545243931436E-03
              -3.1163934093514926E-05
              -2.3877649175922403E-04
              -1.1846356781180034E-02
               1.6746612061455949E-02
              -4.8094818313439381E-03
               3.1424852939509152E-03
              -5.4974574751139212E-03
               2.2601442049322044E-03
              -9.8697901813278779E-03
               9.2724432102151994E-04
               9.3053195518941062E-03
               3.1393742475984568E-03
              -3.4404759356077520E-03
               1.2239796936208481E-03
              -1.5432225713384352E-03
               4.8924207946346042E-04
              -2.8920127616963434E-03
               2.3707876016824934E-03
              -3.3198250180055443E-03
              -8.6375775150348698E-04
               1.3598562927317438E-02
              -4.9258635115881572E-03
              -3.5528967742486173E-03
               3.6137712651592210E-03
               4.0216196152988810E-04
               8.3248919552880458E-04
               4.2280109306973516E-03
               9.8705436803590372E-03
              -1.7128753428368470E-03
              -5.2062906896998733E-03
               3.9263467863702174E-04
               3.4227908799204553E-03
               1.3870504858838682E-03
              -3.9962419321891635E-04
              -5.3885788107367726E-03
              -1.1483054915032383E-02
               1.7195260678032388E-02
              -6.4091300687726819E-03
              -6.1139078136747873E-03
               6.3671595642640164E-03
               1.0877659847557954E-02
              -6.1084059819631236E-03
              -6.5171886040106047E-03
               4.6981424936064281E-03
              -6.2989041105013834E-03
              -3.6126724260347738E-03
               6.2137434526414233E-03
               9.9957690956578426E-03
               1.5205511010654932E-03
              -3.7433118630183751E-03
               8.9368445290197527E-03
               4.6314140106466228E-03
               4.4277218174496144E-04
              -2.2480367052597153E-03
               1.2940343122072443E-04
               5.1262668327949875E-03
               3.7626943933868041E-02
              -7.0712383387152196E-03
               3.9222004795561816E-02
              -4.3051789405346291E-03
               4.0622156509392913E-03
               2.3595815383154260E-03
               6.8840671408110388E-03
               1.4608630897820251E-02
              -9.1400270359649188E-03
               8.6953183927365833E-03
              -2.0354174235819818E-02
              -1.8834068051210660E-03
               5.1057234042845131E-04
              -1.0002494251060453E-02
               8.4815495830058828E-03
              -2.8759638685182574E-03
              -9.8086435712577873E-04
               2.4784150521954115E-03
               7.8296775954266821E-03
              -1.2409205947305166E-02
               1.2446720263616283E-02
               1.5535143534393049E-03
              -7.7365019464408057E-03
               8.4261867968348728E-04
              -5.2773549804633803E-03
               5.5120379609734467E-03
              -4.5911406156211605E-03
               1.1343275113189999E-02
               8.6447776458926703E-03
              -1.2637640630047468E-02
               1.3116133735590054E-03
               1.0207670394111845E-03
               3.1569233422281116E-03
               2.1350431865742002E-02
               3.0957975879718539E-03
              -1.9301830262681074E-02
              -4.2095237112791117E-03
              -5.3428083574451456E-03
               1.5440191303030414E-02
               5.3899048095904746E-03
              -1.0304607351657043E-03
               2.5276870486691401E-03
               1.1948042140446874E-02
               1.2879551805201091E-02
               5.9869143083669850E-03
               1.2497750639697575E-03
               1.0067930245752608E-02
               2.0380938643183234E-03
              -1.0661312913117912E-02
              -3.4210591348822943E-03
               5.7679572768065419E-03
               3.1853616108005554E-03
              -1.5466133997756430E-03
               9.7435377877771773E-04
              -6.6986296092219370E-03
               5.1520647088980033E-03
               1.1693055312162482E-02
               7.4880312195147181E-03
              -4.6114368124138699E-04
               7.2210946494389782E-03
              -1.2026919100222046E-02
               6.6537870623777631E-03
               5.7964623912913609E-03
              -1.5199748162778942E-02
               5.6180876015693099E-03
               7.2348153447220100E-03
               3.1523002937599311E-03
              -1.8857569421779200E-03
               4.0426917784701488E-03
               6.2567699090661476E-03
              -3.1866650223210291E-03
              -8.5752234750045061E-03
               6.8965016670963835E-03
               1.3949761979637113E-02
              -3.0908501985086640E-03
               7.7451568021382712E-03
               3.0730631896456437E-04
              -1.3496687987551310E-02
               1.2703775318981918E-02
               7.7030659235548743E-03
              -3.8430472005906201E-03
               2.8019686618536657E-04
              -5.0697565570330385E-03
               5.7319439726348570E-03
               2.1269104037006177E-03
              -2.3362190583446083E-03
               5.1037282125629500E-03
              -8.9525404455832801E-04
              -1.6331271941131906E-02
               2.1842918342155054E-03
               8.3354236406812563E-04
              -7.5882872885688225E-03
               2.4952630449517260E-02
               3.0735922360633637E-03
              -6.7427047188622904E-03
               5.7433016882291587E-03
               3.3641197166447982E-03
               3.0245816699050313E-03
              -1.7577607043354457E-02
              -9.0030414566603014E-03
              -4.3825009241742116E-04
               4.8345739783516558E-03
               4.1060240994856279E-03
              -2.3960759306195082E-03
               1.2544077430427236E-03
              -1.3180110479585865E-03
              -4.2765083540373238E-03
              -6.7567086775651595E-03
               1.4747337593657760E-03
               4.3211670821767757E-03
               5.3702852385437254E-03
               5.3118096442915643E-03
              -1.8886876573718722E-03
              -9.0412031257853750E-04
              -1.9516541158055626E-02
              -8.8497894501877068E-03
               1.9259316427366245E-02
              -1.6842079199179221E-03
               6.3083726558815891E-03
               4.6408822993482439E-03
              -1.0423668817104994E-02
               7.1236336686423540E-03
               1.6676530214675303E-03
              -9.5748062625680089E-03
               1.1518471810642941E-02
               5.2935606103965607E-03
              -2.2935594842147721E-03
              -7.9475906567247328E-03
               5.8509449134378057E-03
              -5.8442890545101359E-03
              -2.8402090864364932E-03
               6.3981421419447241E-03
               4.4006503663263693E-04
              -7.2977642590066425E-03
              -2.3121997705198190E-03
              -5.8148974955074132E-03
               1.3597826457586364E-03
              -1.3401685296458115E-03
              -1.3862940337676893E-03
               4.5288577890428717E-03
              -2.0319469653293518E-03
              -4.6333742117525651E-03
               6.9241430525314859E-03
              -4.6244380224231560E-03
               1.5869663469217118E-03
               2.2339407491786031E-03
               6.1830898156108099E-03
              -1.2836658250302491E-04
               9.5671119799952320E-04
               2.3249800784425644E-03
               7.8189556699416671E-03
              -1.4096174801559223E-03
              -7.7309296404476655E-03
              -1.2048362950943565E-02
               7.6272292587955693E-03
               7.8507982550815435E-03
              -5.0480564995293992E-03
              -5.6205927338834980E-03
              -4.4252508892023944E-03
               4.6486002544522207E-03
              -5.4800331308987984E-03
              -1.1814908310872162E-02
              -1.5110994060286690E-02
               9.3582558758108017E-03
               1.3946230739574775E-02
               3.1432165302360498E-03
              -4.1030919886634772E-03
               2.3866574271331272E-04
               3.7042040476286688E-03
              -1.1501123821183548E-03
              -6.0274964685759066E-03
              -7.8219068131841901E-03
               2.2164461621728328E-03
               6.0077317278537830E-03
               2.3701611398447781E-03
               6.8928024951953760E-03
               2.9750280015680740E-03
               1.4827072272752958E-02
               7.9963208513588787E-03
              -1.1117979205941196E-02
              -4.7333080954165526E-03
              -6.4206238117253574E-03
               5.5955339323437506E-03
              -1.9258252836940413E-03
              -2.9458785945709969E-03
              -1.0731595732330779E-02
              -7.1953344020934161E-03
               3.1905466045141963E-03
              -6.4596747089495383E-03
              -1.1141315194019737E-02
               5.2588398658745886E-03
               1.7651012848420033E-02
              -5.9241303006272840E-03
               7.2087096964447853E-03
               7.1901960607268032E-03
               2.7563308864884065E-03
              -9.8230632596269102E-03
               2.2356231436564179E-04
               1.3054719271500578E-02
              -1.2442060628067457E-02
               1.4831817941150791E-04
              -5.1292657241100758E-03
               9.3266270941255117E-03
              -1.3588771731892712E-03
               3.9758800298303814E-03
               1.7995024563742416E-02
               6.7761980416432722E-05
              -9.1054460193545558E-04
              -2.9633535108083350E-03
              -9.8241111287750826E-03
              -5.3646676380091083E-03
              -4.8872609775106012E-03
               3.2842638395715953E-03
               6.3857811718747359E-03
              -4.8122544814796489E-03
               2.6852563787609232E-03
              -5.2184618794249389E-03
               2.0186779719334625E-03
               6.1338961927294797E-03
               3.1979023317263138E-03
               3.1724790602300494E-03
               1.1345080186915981E-02
               1.0062512756678863E-02
              -9.1036741771431343E-03
              -4.1270471145064755E-03
               1.6762077416615571E-04
               1.2587891867503101E-02
              -4.7245194513221853E-03
               7.8307152534377849E-03
               5.2870920944055096E-03
               4.0422129006523286E-03
               5.1394977878107635E-03
              -2.1753136088155319E-02
               1.8368334703638085E-02
               6.6620956726943618E-03
              -1.5604565385742895E-02
               3.2712286104598457E-04
               4.4824353493235656E-03
               5.7184725651562617E-03
              -8.9826546374185837E-04
              -3.6278246704271838E-04
               1.4897640740723162E-02
              -4.8699008826673888E-03
              -7.0829129712491655E-03
               2.3051748579578585E-03
              -1.2233122321773109E-02
              -6.7468210381265220E-03
               2.0106418507397470E-03
               2.4057550392659055E-03
               1.2391764545636449E-02
              -8.7657221577744325E-03
              -4.6990806066943549E-03
              -2.8519054306141273E-03
               2.3923251030219788E-04
               2.3442680562907742E-03
               3.5050835950782878E-03
              -3.0806099342878040E-03
              -8.9664954856490016E-03
               2.7601042755541700E-04
              -1.6018709432126560E-03
               1.6581279350810253E-02
               5.7370353278584363E-03
              -4.7068121707563998E-03
              -1.0524449678019274E-02
               2.7594463560350209E-03
               6.1541410766989164E-03
              -2.0304146544128195E-04
              -9.9100509430141833E-04
              -6.8523521674387154E-05
              -8.3245464525662106E-03
              -6.4604164278721518E-03
               1.3170863098519050E-02
              -4.0462593058949803E-03
              -7.0750253858447502E-04
               3.7016888476025175E-03
              -7.0331174359431863E-03
              -3.3152944193752063E-03
               7.5339534330701079E-03
               1.0641496262799397E-02
               6.0576083316473033E-03
               3.5654537663864236E-04
               3.0001278212068482E-03
               2.9402078280579961E-03
               4.7216829120246247E-03
              -3.9519346753466734E-03
              -3.7472267836507567E-04
              -2.4208437131826334E-03
              -5.9756451639771998E-03
               2.5974985415012923E-03
               8.0092096663588082E-04
               6.2853810864662608E-03
               3.8975548672633884E-03
               1.2423664473856630E-03
               2.2603132710409804E-03
              -4.3550615291142476E-03
              -8.8290244658776002E-04
               3.8269735104061535E-03
              -8.4206643997213537E-04
              -2.9605484620026704E-03
               1.2022880075009418E-03
              -9.1087879098097416E-03
               4.9393811162225607E-03
              -3.1593299696664806E-03
              -8.3202011129959990E-03
              -1.1785874034365409E-03
               6.7148443487451605E-03
               1.8442961847519566E-02
               7.6134013344671108E-03
              -6.5023509841002653E-03
         &END THERMOSTAT_ENERGY
         &RNG_INIT
Wiener process for Thermostat # 1        1 F T T  -1.3877964172148927E+00        3819968671.0        1923139303.0        2505174482.0        1129753110.0        1102497896.0        2318485114.0             12345.0             12345.0             12345.0             12345.0             12345.0             12345.0             12345.0             12345.0             12345.0             12345.0             12345.0             12345.0
Wiener process for Thermostat # 2        1 F T T   5.9690975612399577E-01        1863048650.0        1167059563.0        4156553466.0        2659491592.0        2500563110.0        2967422577.0        3692455944.0        1366884236.0        2968912127.0         335948734.0        4161675175.0         475798818.0        3692455944.0        1366884236.0        2968912127.0         335948734.0        4161675175.0         475798818.0
Wiener process for Thermostat # 3        1 F T T  -1.9577134425325560E-01        2029679022.0        1992813296.0        1475024831.0        3744841000.0        4231717232.0        1872789393.0        1015873554.0        1310354410.0        2249465273.0         994084013.0        2912484720.0        3876682925.0        1015873554.0        1310354410.0        2249465273.0         994084013.0        2912484720.0        3876682925.0
Wiener process for Thermostat # 4        1 F T T  -5.5423907268054418E-01         972191078.0        3239779000.0        2283144792.0        4029872124.0        2868550739.0         388907277.0        2338701263.0        1119171942.0        2570676563.0         317077452.0        3194180850.0         618832124.0        2338701263.0        1119171942.0        2570676563.0         317077452.0        3194180850.0         618832124.0
Wiener process for Thermostat # 5        1 F T T  -3.6874052824979625E-01         246061856.0        2033992607.0        4208640487.0        3425480013.0        1713937449.0        3033523858.0        1597262096.0        3906379055.0        3312112953.0        1016013135.0        4099474108.0         275305423.0        1597262096.0        3906379055.0        3312112953.0        1016013135.0        4099474108.0         275305423.0
Wiener process for Thermostat # 6        1 F T T   5.7875332706651861E-01        4268450248.0        1240555256.0        2123119467.0         299173953.0        2368881629.0        2698044585.0          97147054.0        3131372450.0         829345164.0        3691032523.0        3006063034.0        4259826321.0          97147054.0        3131372450.0         829345164.0        3691032523.0        3006063034.0        4259826321.0
Wiener process for Thermostat # 7        1 F T T  -1.8983145396195047E+00        4260312323.0         705196258.0         937296972.0        1373994383.0        3179698350.0        3757299263.0         796079799.0        2105258207.0         955365076.0        2923159030.0        4116632677.0        3067683584.0         796079799.0        2105258207.0         955365076.0        2923159030.0        4116632677.0        3067683584.0
Wiener process for Thermostat # 8        1 F T T  -3.3116685260855833E-01        2351531572.0        3477839446.0        1021048571.0        1975906828.0        1893564842.0         777663015.0        3281794178.0        2616230133.0        1457051261.0        2762791137.0        2480527362.0        2282316169.0        3281794178.0        2616230133.0        1457051261.0        2762791137.0        2480527362.0        2282316169.0
Wiener process for Thermostat # 9        1 F T T   1.4386427466100791E+00        3265425123.0        2999969280.0        3048908474.0        1047403656.0         134736569.0        4209884843.0        3777646647.0        1837464056.0        4204654757.0         664239048.0        4190510072.0        2959195122.0        3777646647.0        1837464056.0        4204654757.0         664239048.0        4190510072.0        2959195122.0
Wiener process for Thermostat # 10       1 F T T  -2.3947144259907721E-01        2825100143.0        2025717467.0        3827127036.0        1422979577.0        1026966836.0        1481957392.0        4215590817.0        3862461878.0        1087200967.0        1544910132.0         936383720.0        1611370123.0        4215590817.0        3862461878.0        1087200967.0        1544910132.0         936383720.0        1611370123.0
Wiener process for Thermostat # 11       1 F T T   2.8146058156813852E-01        3161233422.0        2404453347.0        1673723662.0         906337025.0          73303549.0        1016746719.0        1683636369.0         362165168.0         814316280.0         869382050.0         980203903.0        2062101717.0        1683636369.0         362165168.0         814316280.0         869382050.0         980203903.0        2062101717.0
Wiener process for Thermostat # 12       1 F T T  -6.6211933450441895E-01         208754144.0        1983222026.0        1378772639.0         460703296.0         651350573.0        3898252829.0         272317999.0         166758548.0         310112982.0         201045826.0        1680231254.0         118290799.0         272317999.0         166758548.0         310112982.0         201045826.0        1680231254.0         118290799.0
Wiener process for Thermostat # 13       1 F T T   2.2418582236869027E-02         545702192.0         878923556.0         464381839.0        1267067492.0        3004786620.0        2258194530.0        2245755202.0        1652682525.0        2865544364.0         721509566.0         209733568.0         592362218.0        2245755202.0        1652682525.0        2865544364.0         721509566.0         209733568.0         592362218.0