 # Version information for this restart file 
 # current date 2024-03-19 18:11:01.607
 # current working dir /home/mp6576/comp-class-2023/comp-lab-class-2023/Week12/Runs/Proton
 # Program compiled at                              Sat Dec 12 18:27:15 EST 2020
 # Program compiled on                                         cs001.nyu.cluster
 # Program compiled for                                                nyu-intel
 # Source code revision number                                       git:8c64c6e
 &GLOBAL
   PRINT_LEVEL  LOW
   PROJECT_NAME proton_aimd_1ns_every0.5fs
   RUN_TYPE  MD
   WALLTIME 21600
 &END GLOBAL
 &MOTION
   &GEO_OPT
     OPTIMIZER  BFGS
     MAX_ITER  100
     MAX_DR     3.0000000000000001E-03
     &BFGS
     &END BFGS
   &END GEO_OPT
   &MD
     ENSEMBLE  NVT
     STEPS  2000
     TIMESTEP     4.9999999999999994E-01
     STEP_START_VAL  500
     TIME_START_VAL     2.4999999999999795E+02
     ECONS_START_VAL    -1.1018977434131896E+03
     TEMPERATURE     3.0000000000000000E+02
     &THERMOSTAT
       TYPE  GLE
       REGION  MASSIVE
       &GLE
         NDIM  5
         A_SCALE     1.0000000000000000E+00
         A_LIST     1.8595758612559999E+02    2.7263853498399998E-01    1.1526100454610001E+01   -3.6414578262600003E+01 \
             2.3173375816020001E+02
         A_LIST    -2.7809524712060002E-01    8.5951591808710006E-05    7.2189048017650004E-01   -1.9844539343859999E-01 \
             4.2409257583420001E-01
         A_LIST    -1.4825808131210000E+01   -7.2189048017650004E-01    1.3590902121280000E+00    5.1498896280349999E+00 \
            -9.9949268450990001E+00
         A_LIST    -1.0372189126880000E+01    1.9844539343859999E-01   -5.1498896280349999E+00    2.6661910891169999E+01 \
             1.1507715495310000E+01
         A_LIST     2.1801346360420001E+02   -4.2409257583420001E-01    9.9949268450990001E+00   -1.1507715495310000E+01 \
             3.0958394565589998E+02
         &THERMOSTAT_ENERGY
              -3.1182743728969346E-03
              -1.3178719518427227E-03
              -1.5110066126765352E-04
               1.0681965993850362E-03
              -6.5173416349017270E-03
              -7.6037488149745583E-04
              -1.1137929237547345E-03
              -6.1532739747749323E-04
               8.3538216050544536E-03
               1.5405794913404517E-03
               5.9045353697337703E-03
              -1.2663381752893769E-03
              -1.1101972083796458E-03
              -2.5559955589549554E-03
               1.2144854657685162E-03
              -5.2912109763202566E-03
               2.2154719650721091E-03
              -3.0031400854793793E-03
               5.4357766032952851E-03
               1.1176016359923232E-03
               3.9820433554209446E-03
              -1.7544061266638986E-03
              -4.2929285363155333E-03
               5.1085060000947537E-03
              -3.5093652623287026E-03
              -3.6889469814227745E-03
               6.1356900915801149E-05
               3.9659032632435882E-03
               5.2151248582373477E-04
              -6.8069201038570314E-05
              -7.6613336285815533E-03
               5.7918231116236103E-03
               5.0176996452039151E-03
              -4.5370101286968669E-04
              -2.8756083307857078E-03
               5.6988472658962971E-03
              -2.5956719067714907E-03
               7.9121599565094879E-04
               2.8350870229623157E-03
              -1.8159652999534281E-03
               4.2425025388431606E-03
              -1.3804021256375537E-03
               3.5033062122646523E-03
               6.7020394332693344E-03
              -8.4166027125959619E-03
               5.1325775643642196E-03
               5.7540604678022970E-03
               8.5747687971690699E-04
              -2.2192203200746244E-03
              -8.8549678748909200E-04
               2.4128641454031481E-03
               7.6536337929716978E-03
              -2.2330419099671874E-03
               9.4472617154672013E-03
              -3.8048373284665692E-03
               2.2686058946089949E-03
               8.6017154077578414E-05
               1.3557438254093346E-03
               2.1447068294181506E-03
               4.3488126208522469E-03
              -2.7557886339450812E-03
               5.1913606952531325E-04
               5.0316074835902455E-03
               1.6641427827025102E-03
               9.0044303372316913E-04
               1.8442594786290947E-03
              -3.1510675705246705E-03
               3.2038906652617554E-03
               7.5674444594225976E-03
              -2.2102506145036697E-03
               2.5576257419113162E-03
              -5.5960943168907422E-03
              -2.0021349671085261E-03
               1.6317731381498401E-03
              -3.7891827858148501E-03
              -2.7299233394710966E-03
               6.6065440230541972E-03
               4.6909624826968772E-03
               3.6910566755910608E-03
               3.2036341166842916E-04
              -5.2102231128738578E-03
              -2.2629383821194129E-03
               2.8474376929189969E-03
              -2.7742690050823041E-03
               2.7118779210304777E-03
               4.3577477038338826E-04
              -3.8013186729226474E-03
               1.2711532539864043E-03
               2.8894558430781368E-03
              -3.1479185953545924E-03
               4.9487406287100051E-03
              -4.2798838008315503E-03
               1.6722477709068290E-04
               1.5311218902673187E-03
              -8.4287431846213623E-03
               7.7580605011470082E-03
               3.0801560999283500E-03
               1.1963621663568622E-03
               2.8250982107880184E-03
               4.7478634178589468E-03
               7.7470255513081791E-03
              -1.4257237694360301E-03
              -8.8986532437708031E-04
               1.2662515082408433E-02
               2.5168705128926017E-04
               7.1887978832102777E-03
               2.1116862775126800E-02
               1.1157327271484205E-02
               4.3787361732129642E-03
              -2.6550670283857509E-03
               1.8084918832488547E-03
               4.9139568146552815E-04
               3.8447747564709710E-03
               6.3781601486832329E-04
               5.2650197895542173E-03
               2.0329543252935230E-03
              -7.4587561583544281E-03
               4.2289981520668542E-03
              -5.0053980742164848E-03
              -2.4497094138846466E-03
              -3.9228768170638641E-03
               3.6053652745756744E-03
               2.5394520868207995E-03
               2.3072085885218938E-03
              -1.8223376769378255E-03
              -1.1378241122152585E-03
              -2.9037820067006633E-04
               2.5404436463915729E-03
               1.2733072694796756E-03
              -9.1805401864033295E-06
              -8.4671350251808893E-03
               3.1173189065387148E-03
              -1.5449053557246141E-03
               6.2722055263649901E-04
              -2.7722022070027961E-03
               1.1819963753351755E-03
              -3.3114270645714038E-03
              -1.2725811355598926E-04
               6.7216934866049156E-04
              -4.0683370638687072E-03
               5.1201278216468880E-03
               4.3682505040458794E-03
               5.4912482571161953E-04
               5.1692383164168116E-04
              -2.4011803512439416E-03
              -3.5288448976874037E-03
               2.0376349373158690E-03
              -2.2598692745159055E-03
              -4.4951734458222288E-03
               7.1883252612165854E-03
               2.7377803961755628E-03
               4.6968144056412876E-03
              -2.5692943553421348E-03
               1.1632797345077005E-03
               2.0782079220594365E-03
              -3.2291787080346700E-03
               3.2843431285273532E-03
               1.1457250429595302E-03
               1.4580118221532349E-04
               3.4864905050901122E-03
              -1.3544453439347114E-03
               1.4250298721971250E-03
              -1.4740374282935505E-03
               2.5531276522193410E-04
               3.2631575056441017E-03
               7.4382332340740620E-03
               2.7246981381346259E-03
              -6.8698907869693656E-03
              -3.7635458689245418E-03
               3.6321182435463087E-03
              -7.9225635776355042E-04
               5.8363613221849957E-03
               1.0444267524637053E-03
               3.6731359648151402E-03
               1.9994825754719289E-01
               3.2257275227143403E-02
               1.7801814329693966E-02
               6.0057869787933553E-03
               4.3721211582972838E-03
              -4.0126805894930718E-03
               2.3916344914504173E-01
               8.8192821006787575E-02
               2.2083758666480997E-02
              -4.4633733605641737E-03
               3.1604544681154852E-03
               1.9099490917551028E-03
               6.1993553783087066E-03
              -3.6063161966419549E-03
              -1.0077745778815542E-03
              -4.3152682804834981E-03
              -5.1420458286697180E-04
               2.9683835450001607E-03
              -6.6832215132291476E-04
              -4.5457937285100702E-03
               1.8786497943943535E-03
               2.4609701181460605E-03
              -3.7753645804186045E-04
               7.0296325756416598E-04
               1.0764664538737327E-04
               2.1356200854326648E-03
               3.3475683253291273E-03
               2.2420894598403178E-03
               2.3323957934792746E-03
               3.5469499602563776E-03
              -5.8517092154242445E-03
              -6.1965434998435907E-03
               3.3069101866230730E-03
              -6.8972026032903806E-04
              -6.2898557280685304E-03
               6.6331537580791794E-03
              -2.2552700882286867E-03
               1.3015347866003925E-03
               1.1794774980359860E-02
               3.8453477304854090E-03
              -7.7360857435584659E-03
               7.1368314169151011E-03
              -1.3626451034375615E-03
              -4.7494793007819749E-04
              -3.7993013867660239E-03
              -2.7470303707907847E-04
               2.2216286341014391E-03
              -5.1136757427553683E-04
              -4.7125180300806608E-03
              -4.6751158304257336E-04
               3.7271818348898092E-03
               6.6576856664211969E-03
              -3.0858084041610928E-03
               1.9397156461655677E-04
              -3.7408570051058023E-03
               8.1818255917087755E-04
               4.6560524929125898E-04
               5.9033643954940259E-03
              -3.3623881194636560E-04
               4.7936190561149354E-03
               2.8696618783607738E-03
              -1.9566577630777370E-03
              -3.2098173139523010E-03
               1.2029344355065379E-03
              -9.0237472651658545E-06
               7.9251481393400518E-04
              -4.3451199046369909E-03
               2.3012264237633026E-03
               2.9886521087805766E-03
              -1.2282919244366718E-03
              -3.6757275677116621E-03
              -3.6846426919678677E-03
               1.9381513187033145E-03
              -4.2704687984273394E-03
              -2.4405500904604552E-03
              -9.7828269115104588E-03
               5.3593894936187405E-03
               3.0846292699364623E-03
              -1.6916855544962632E-03
               3.9446716610987620E-03
               4.5135997048552532E-03
              -3.1879975507541733E-03
              -1.7852185040866948E-03
              -2.6079626890869760E-05
              -6.0704101972611755E-04
              -2.3985101015733517E-03
               1.8295395195469530E-03
               2.3905114165513074E-03
               4.2062076542480221E-03
              -1.3348718224611136E-03
               5.2782033423510445E-06
              -3.3076363306942065E-03
              -3.7391996415097615E-03
               3.3707316880345591E-03
              -2.7476688503062412E-03
               2.2179998864471440E-03
               2.8882573297706462E-02
               3.9947447809314347E-03
               2.9886416850242792E-02
              -2.1446785649791413E-03
              -1.5488727892369670E-04
               6.1668021249089227E-04
               2.3124055781256268E-03
               4.9029428505530329E-03
               3.5750458994518682E-03
               1.9731366942278548E-03
              -5.9320314305648068E-03
              -7.4045993022047183E-03
               4.8944107191136311E-04
              -1.2945813214707710E-03
               8.0719272907770739E-03
              -2.1821584577568611E-03
               2.6495488381279896E-03
              -9.5212813885734108E-03
               2.5839578755493301E-03
              -4.2515235332638282E-03
              -3.7692422644747979E-03
               1.7219407541206795E-04
              -3.4635570186043177E-04
               2.8257700675498230E-03
               1.2820320084953673E-04
               5.3940520193367144E-03
              -5.3889608750072419E-03
               2.7540845984427090E-03
              -9.7685862086757127E-04
              -2.9185242489695347E-03
               4.0751974137255326E-04
               1.7017945605415517E-03
               2.8111735891634443E-03
               4.1531150051384675E-03
              -8.8432145988615420E-04
              -1.1867083552403834E-03
              -4.6377542924559371E-03
               8.7889863461600214E-04
              -2.0815137506449322E-03
               2.8559708258797927E-03
              -1.0939811253169335E-04
               4.2572162930686426E-03
               1.2194207884527956E-02
               1.4663360784385716E-02
               4.3127060270394205E-03
               4.8528167616077060E-03
               6.1501884216359813E-03
               3.0775968755094294E-03
              -2.3148180093807307E-03
               1.1624734902132214E-03
               3.0413327887449508E-03
              -4.9295985380296481E-04
              -1.4754203941597351E-03
              -3.3994733317573083E-03
               1.4272905098734094E-03
               5.9143808792308942E-03
               4.2999412280406799E-03
               1.4909130299582669E-03
              -3.4187602785350376E-04
              -2.3610017685648682E-03
              -2.8516187679001036E-04
               7.1446470426119195E-05
               1.1317812885540143E-03
               2.3913522446293890E-03
              -4.0357425806827191E-03
               4.4906283589812889E-04
               4.2712643410389986E-03
               7.2939228156674457E-04
              -1.4243537291575318E-04
               4.3518288305925404E-03
              -3.2184967893011934E-03
               1.1322923278827004E-03
              -7.3389714744888140E-04
               5.1962987040188270E-03
               7.5185123744238335E-04
               1.1418390466859977E-03
               1.0952379887082977E-03
              -1.0285661878882376E-03
               3.9109577068841136E-04
              -4.7466757817254254E-03
               1.3438771120150230E-03
               1.5578889842672459E-03
               7.6595080323891250E-05
               4.1481986921858508E-03
              -3.8183808967390022E-03
               9.8997928644182576E-05
              -1.3379571048584707E-03
               7.1382730346061379E-03
              -2.7566472623376842E-03
              -5.6464680172480962E-03
               1.7782106473387702E-03
              -1.5185491491056522E-03
               9.2496920536237932E-03
               3.6259592286431888E-03
              -3.3164301677991561E-03
               3.4373064696136008E-03
               4.8147331826045355E-03
               1.2350314775537413E-03
              -1.0702841778234447E-02
               5.9211607188836631E-05
              -2.3699858401362468E-03
              -1.9602042651121359E-03
               3.2817133061879373E-03
              -1.5151590786835320E-03
              -2.7710769907872178E-03
               2.2312214907305216E-03
               2.9363490670208557E-04
              -6.5513917972587488E-03
               1.1281124918020040E-03
              -6.8057420880858000E-04
               1.4047847260681462E-03
              -1.5661840851429543E-03
               1.1392191072772958E-04
              -3.9917600619292460E-03
              -5.8356845042894260E-03
              -2.6658832503749372E-04
               5.2560128292408123E-03
               4.7768225909366096E-03
               1.3660805532612905E-03
               5.2534181568813423E-03
              -2.7064885505596941E-03
               4.2757648229411992E-03
              -8.0345505616294085E-04
              -6.8575629709253039E-03
               3.6333698483867237E-03
               5.6291431084641080E-03
               2.5251690634124227E-03
               1.1701299260088571E-03
               1.5546155580169235E-03
              -3.1938601304488281E-03
              -2.9433936186230767E-03
               2.6685195668598120E-03
               6.4280752033434897E-03
               3.1282666175535085E-03
              -5.1482307620088564E-03
              -2.1660557602021890E-03
               2.7710617585339622E-03
              -8.2708070586655271E-03
              -1.8545051704041298E-03
               2.8317229651769488E-03
               1.6077219626192789E-03
               8.4405673462590594E-04
              -7.1536935444223672E-04
              -1.9197436155971980E-03
              -2.6149498742263273E-03
               1.5630363768875874E-03
               1.9870658329742595E-03
              -1.6811712733202024E-03
               2.0925015447499158E-03
               2.8556725518760122E-04
               7.2942169864058217E-03
              -3.8856863353822330E-03
              -2.0558592960271912E-03
              -2.1689605451970387E-03
              -1.8731641215324879E-04
               3.8114406061150402E-03
               2.1853212980450258E-03
              -5.7589250371289273E-03
               7.0618221500864432E-04
               6.6068864753963223E-03
              -1.9618829798744740E-03
              -1.1447393426787099E-03
              -3.5087469669293691E-03
              -4.2783376319293770E-03
               2.3823567370524741E-03
               5.0488639428937776E-03
               6.7974431314069396E-04
              -2.0313581705000768E-03
              -2.8867503541735921E-04
               2.3466006214470569E-03
               2.1776994885067012E-03
              -4.2508757712872626E-04
              -5.0661909898044942E-04
               8.0022400910480793E-04
               1.7869230267195855E-03
               8.6217993123918184E-03
               4.7431244753025617E-03
              -1.6437300785302170E-03
              -2.3356554988997035E-03
              -5.9963635888845407E-04
              -1.4425603000214830E-03
              -5.7463416713547438E-03
               5.6596355768807650E-03
              -1.9336721940437368E-03
              -1.5268510699953729E-03
              -2.7604609044623737E-03
              -4.5111203154045377E-04
               2.8211816491825236E-03
              -2.8190636127359611E-03
              -1.2849197854387512E-03
              -2.8827795506192917E-03
               6.0947654736451442E-03
              -4.7115353153478643E-03
               4.3930145014816794E-04
               6.8022169153754480E-03
               2.3113450458322514E-03
              -2.3731085432340802E-03
              -3.2232285800672853E-03
               1.6690972849754790E-03
               2.6790187625690878E-03
              -3.2449706442585521E-03
              -1.6297124741807014E-03
               4.2731924191119217E-03
              -1.0110342847769399E-03
               4.5643801708225736E-04
               4.6285114239425001E-03
              -1.0092508962883232E-03
               1.8879487809884876E-03
              -4.9887814570699889E-03
               1.5703755294874647E-03
              -1.3029192049548051E-03
               9.4117761549753235E-04
               2.7530106512252588E-03
               8.4815620508371192E-04
               1.0822213810318339E-03
               3.6250240475416305E-03
              -6.3122898145391649E-03
              -2.0136535371120395E-03
               1.6523183493801451E-03
              -4.9270786959116773E-04
              -2.2784449027490623E-07
               3.1483713931760790E-03
              -1.4477122562584440E-03
              -4.4205133404911379E-03
               2.3088673285240565E-03
              -7.2259253272104812E-03
               5.8661262952342270E-03
               7.6439694361998415E-03
               5.2405815234803747E-03
               2.7653126250906548E-03
              -1.2033488115646971E-03
               3.5603554564887980E-05
              -1.0177303101336561E-02
               5.8404406555485969E-03
              -1.7053152274496674E-03
              -7.0639580509608401E-03
               1.5490396188645413E-03
               2.0116729905843189E-03
              -1.0711472048299080E-03
               8.3507877010017032E-04
               3.9470323369201407E-03
               2.3869729762517502E-03
              -2.2836134269871335E-03
              -6.0536647793110500E-03
               8.6328503938137120E-04
               1.8107427721816109E-03
              -3.9286617325812734E-03
               3.3508812458590484E-03
               5.5622257470582942E-03
              -4.2429566690489187E-03
               3.9107857845098481E-05
              -1.6236265565819094E-03
               2.3030944613602038E-03
              -1.3921150149373209E-03
              -3.4098870387293499E-03
               3.4418165972243352E-04
              -3.1183359614609654E-03
              -8.0336431200322533E-04
               6.3085187449880295E-03
               4.6262164605915005E-03
              -8.1271228399210972E-04
              -8.6877582697305223E-04
               7.3133805295996042E-04
              -5.1965650024707660E-03
               1.9985309049928069E-03
              -4.4182590844909537E-04
              -2.2523301050562911E-06
               7.5600647640732541E-05
               3.2333527773716420E-03
               5.3344014467093500E-04
               8.1719515978705484E-04
              -7.3771606206769375E-05
              -4.7438639703841238E-03
              -4.4639426368028585E-04
               2.9523789679666494E-03
               1.1169981216531623E-03
              -3.0044063523753700E-03
               6.8930042120308619E-03
              -1.5873334717258550E-03
               1.4432970520055883E-03
              -3.7182412938119472E-03
               5.8038183120195648E-04
               2.3897279410243491E-04
               1.9316434571994003E-03
              -3.6933772259004668E-04
              -6.6115098808319046E-03
              -8.8758638179308057E-07
              -1.2413328536684662E-03
               2.2711116952939987E-03
               2.9311052596669037E-03
               5.2702660740799514E-03
               5.7979156055046376E-04
              -2.2887571744277264E-04
               3.2280871912259362E-05
              -5.0390946557043298E-04
               6.1575147537456668E-03
              -7.6320354127515332E-03
              -4.1780987062382544E-03
               6.8251261723196073E-03
              -6.5386127057981171E-03
               1.8680162406232954E-04
              -2.5811953560572437E-03
              -3.7785384373055062E-03
              -7.4478696541724126E-03
               1.1680943423651080E-03
              -3.3649106796886834E-03
               6.4692674375766573E-04
               1.0756851115788254E-02
              -2.6490470973942861E-03
         &END THERMOSTAT_ENERGY
         &RNG_INIT
Wiener process for Thermostat # 1        1 F T T  -1.5505429657892764E+00         661802595.0        2026459976.0        3136775027.0        3268219721.0        1056216878.0        3744216088.0             12345.0             12345.0             12345.0             12345.0             12345.0             12345.0             12345.0             12345.0             12345.0             12345.0             12345.0             12345.0
Wiener process for Thermostat # 2        1 F T T   1.5766939834860993E-01        2521559082.0        1979391111.0        3972826820.0        2839528192.0        3960449033.0        3051881342.0        3692455944.0        1366884236.0        2968912127.0         335948734.0        4161675175.0         475798818.0        3692455944.0        1366884236.0        2968912127.0         335948734.0        4161675175.0         475798818.0
Wiener process for Thermostat # 3        1 F T T  -1.6802103653762466E+00        2464096834.0        3454226368.0         668358963.0        3607867155.0        2139338144.0        1695442074.0        1015873554.0        1310354410.0        2249465273.0         994084013.0        2912484720.0        3876682925.0        1015873554.0        1310354410.0        2249465273.0         994084013.0        2912484720.0        3876682925.0
Wiener process for Thermostat # 4        1 F T T  -9.2120442907176847E-01        3007810664.0         626544053.0           5688727.0        2019501767.0        4050809287.0        2188826537.0        2338701263.0        1119171942.0        2570676563.0         317077452.0        3194180850.0         618832124.0        2338701263.0        1119171942.0        2570676563.0         317077452.0        3194180850.0         618832124.0
Wiener process for Thermostat # 5        1 F T T   1.9586792436148486E+00        3119398129.0        2238966874.0        1731687009.0        1729823850.0        3912388439.0         182524877.0        1597262096.0        3906379055.0        3312112953.0        1016013135.0        4099474108.0         275305423.0        1597262096.0        3906379055.0        3312112953.0        1016013135.0        4099474108.0         275305423.0
Wiener process for Thermostat # 6        1 F T T  -2.2012851380256623E-01         527820745.0        2447393615.0         338698828.0         653439858.0         976211817.0        3944196308.0          97147054.0        3131372450.0         829345164.0        3691032523.0        3006063034.0        4259826321.0          97147054.0        3131372450.0         829345164.0        3691032523.0        3006063034.0        4259826321.0
Wiener process for Thermostat # 7        1 F T T  -1.2191095662093037E-02         167278661.0        2992638024.0        1197931920.0         124710794.0         889033703.0        2194094787.0         796079799.0        2105258207.0         955365076.0        2923159030.0        4116632677.0        3067683584.0         796079799.0        2105258207.0         955365076.0        2923159030.0        4116632677.0        3067683584.0
Wiener process for Thermostat # 8        1 F T T  -2.6373530393371375E-01        2923147749.0        3809475671.0         892364519.0        3114385888.0        3523415917.0        3402922821.0        3281794178.0        2616230133.0        1457051261.0        2762791137.0        2480527362.0        2282316169.0        3281794178.0        2616230133.0        1457051261.0        2762791137.0        2480527362.0        2282316169.0
Wiener process for Thermostat # 9        1 F T T  -1.2388913960989989E+00         276694386.0        3384434371.0        2194062143.0        3864498526.0        2498625561.0        4174179731.0        3777646647.0        1837464056.0        4204654757.0         664239048.0        4190510072.0        2959195122.0        3777646647.0        1837464056.0        4204654757.0         664239048.0        4190510072.0        2959195122.0
Wiener process for Thermostat # 10       1 F T T  -6.9271884074884071E-01         298842605.0        4183294382.0        3769908432.0        1623977651.0        3452521187.0         349927101.0        4215590817.0        3862461878.0        1087200967.0        1544910132.0         936383720.0        1611370123.0        4215590817.0        3862461878.0        1087200967.0        1544910132.0         936383720.0        1611370123.0
Wiener process for Thermostat # 11       1 F T T  -3.9199517781213300E-01        1183014876.0        2469777470.0        2706060047.0        1374668043.0         490283634.0         131761905.0        1683636369.0         362165168.0         814316280.0         869382050.0         980203903.0        2062101717.0        1683636369.0         362165168.0         814316280.0         869382050.0         980203903.0        2062101717.0
Wiener process for Thermostat # 12       1 F T T   1.2248374085476998E+00         744312290.0        1838623065.0        1895433531.0        2930723882.0        3034111406.0        1223209339.0         272317999.0         166758548.0         310112982.0         201045826.0        1680231254.0         118290799.0         272317999.0         166758548.0         310112982.0         201045826.0        1680231254.0         118290799.0
Wiener process for Thermostat # 13       1 F T T   1.6053528300026945E-02         341235087.0         365462780.0         607175623.0        3292057964.0        1611524565.0         256574977.0        2245755202.0        1652682525.0        2865544364.0         721509566.0         209733568.0         592362218.0        2245755202.0        1652682525.0        2865544364.0         721509566.0         209733568.0         592362218.0