 # Version information for this restart file 
 # current date 2024-03-19 20:16:02.972
 # current working dir /home/mp6576/comp-class-2023/comp-lab-class-2023/Week12/Runs/Proton
 # Program compiled at                              Sat Dec 12 18:27:15 EST 2020
 # Program compiled on                                         cs001.nyu.cluster
 # Program compiled for                                                nyu-intel
 # Source code revision number                                       git:8c64c6e
 &GLOBAL
   PRINT_LEVEL  LOW
   PROJECT_NAME proton_aimd_1ns_every0.5fs
   RUN_TYPE  MD
   WALLTIME 21600
 &END GLOBAL
 &MOTION
   &GEO_OPT
     OPTIMIZER  BFGS
     MAX_ITER  100
     MAX_DR     3.0000000000000001E-03
     &BFGS
     &END BFGS
   &END GEO_OPT
   &MD
     ENSEMBLE  NVT
     STEPS  2000
     TIMESTEP     4.9999999999999994E-01
     STEP_START_VAL  1500
     TIME_START_VAL     7.5000000000000762E+02
     ECONS_START_VAL    -1.1018977434131896E+03
     TEMPERATURE     3.0000000000000000E+02
     &THERMOSTAT
       TYPE  GLE
       REGION  MASSIVE
       &GLE
         NDIM  5
         A_SCALE     1.0000000000000000E+00
         A_LIST     1.8595758612559999E+02    2.7263853498399998E-01    1.1526100454610001E+01   -3.6414578262600003E+01 \
             2.3173375816020001E+02
         A_LIST    -2.7809524712060002E-01    8.5951591808710006E-05    7.2189048017650004E-01   -1.9844539343859999E-01 \
             4.2409257583420001E-01
         A_LIST    -1.4825808131210000E+01   -7.2189048017650004E-01    1.3590902121280000E+00    5.1498896280349999E+00 \
            -9.9949268450990001E+00
         A_LIST    -1.0372189126880000E+01    1.9844539343859999E-01   -5.1498896280349999E+00    2.6661910891169999E+01 \
             1.1507715495310000E+01
         A_LIST     2.1801346360420001E+02   -4.2409257583420001E-01    9.9949268450990001E+00   -1.1507715495310000E+01 \
             3.0958394565589998E+02
         &THERMOSTAT_ENERGY
               1.9066579004427273E-03
               2.7173687757280161E-04
               1.4240529765484088E-03
              -1.8772555949940041E-03
              -1.4447990087163458E-02
               1.5588530620305576E-03
              -2.5521043519667825E-03
              -7.8690440791799403E-04
               9.4051179509376318E-03
               1.6344003608697430E-03
               9.0998961670880219E-03
              -2.7430363022399205E-03
               7.3398469350359858E-03
              -1.2321254956159487E-02
               1.3464966209938169E-02
              -7.4315383865156716E-03
              -5.6568452838158126E-03
              -2.0314777322806479E-03
               2.1249376360379345E-03
              -1.3240775761337636E-03
               9.3728214060629575E-03
               8.2276239946997634E-03
              -1.1166295033476836E-02
               5.1416199367690279E-03
               1.7175603165667369E-03
              -3.9913199299587004E-03
              -4.3965397346878137E-03
               1.8904961027757690E-03
               2.7254921242562814E-03
               9.0395921968546272E-05
              -1.2647370517982745E-02
              -2.0833808895734589E-03
               8.3508231552389227E-03
               1.6228364242571759E-03
              -1.3431662327433667E-02
               1.9355886724918045E-02
              -2.1619156197085140E-03
              -3.6819867352094679E-03
               4.1281160008470631E-03
               4.9798709112687757E-03
              -4.5125149532761720E-03
              -3.8465874784009675E-03
               2.8479184867619112E-04
               7.4364276382156511E-03
              -4.4689815432704654E-03
               5.5499786911735773E-03
               1.3554467109296239E-03
              -1.8200746599717941E-03
               7.0852793338978389E-03
              -7.7222533642234206E-03
               7.4981784691259823E-03
               1.5576721647765137E-02
               6.4846326107284645E-04
               5.7884510626015559E-03
              -4.3931751556797434E-03
               1.0958403004198841E-03
               1.2661163329948369E-03
               6.2930109075514081E-03
               8.2118730752809893E-04
              -6.3872091220359463E-04
              -1.0336710410120490E-02
              -5.7583807133857181E-03
               1.9084569219024752E-02
               3.0980771204395280E-03
               1.2362247303815248E-03
               5.3982824985845624E-03
              -9.3535509684085378E-03
               3.5866543230528578E-03
               1.3253065013405771E-02
              -4.6334763005267786E-04
              -3.4753905577763066E-03
              -6.4189731157237029E-03
              -5.3400985976209889E-03
               5.5988729443267058E-03
              -2.1757119599965383E-03
              -1.0143216348793475E-02
               9.6320440862829385E-03
               1.5288000746500569E-02
               6.0344754233567013E-03
              -7.8936370752948400E-03
              -3.6794852443467908E-03
              -6.8652325585887453E-03
               4.5537859921766224E-03
               4.3194276321243241E-03
               9.5140064327403271E-04
               3.7218653365660675E-03
               2.8903549361232106E-03
              -3.1836594707063980E-03
               2.3715601557305860E-03
              -5.7690524917783639E-03
               3.2307261968526641E-03
              -2.1944306484718568E-03
               1.5626597648566668E-03
              -7.4066230737565870E-03
              -1.2990101762969388E-02
               1.0251931655940351E-02
               4.1703829513766782E-03
              -5.2120286003978387E-04
               6.1011826176372705E-03
               8.4685841203550362E-03
               8.4333783777543036E-03
              -6.4038999881849473E-03
              -4.7507635879714145E-03
               1.6586668970119310E-02
              -7.5495203550693408E-03
               9.7185265319786746E-03
               1.2563371022685208E-02
               1.3101324616621474E-02
               5.9370742636836293E-03
              -4.0203573726189023E-03
              -2.0509739083951805E-03
              -2.4590697348331821E-03
               1.0432888390556226E-02
               3.5648933152867546E-03
               4.7999955107003618E-03
              -4.3667252733237752E-03
              -6.9466567944590409E-03
              -2.0867152986431134E-04
              -7.3907545755771042E-04
               8.6042215456680110E-04
               2.5834843608140688E-03
               4.5770329724973986E-03
               5.5757870575505290E-04
              -5.0438121539862959E-03
               3.4436793733922427E-03
              -2.5888281891983003E-03
               5.0378918668895845E-03
              -1.0622422775918396E-03
               1.2196173364772158E-03
              -6.2257597430786134E-03
              -1.3652445520000094E-02
               5.3997397527855793E-03
               3.6640418140128405E-03
              -6.9158319261305014E-04
               7.7136310438249414E-03
               6.8386661570509866E-04
              -3.8437394950498289E-03
              -1.0008668097364979E-02
              -1.3560244597044147E-03
              -1.7850812053036918E-03
               9.9837950315226406E-03
               9.1202142744238116E-03
               1.6923654866304514E-03
              -7.2754699341960900E-03
              -3.2865960188520711E-03
              -6.6750527819712906E-04
               4.2423642838468186E-03
              -5.2757469525847455E-04
              -1.1087331951638437E-02
               7.9844714937182468E-04
              -8.9905316151977464E-03
               2.7088352867851353E-03
               5.6985571615101628E-03
               4.6872076890638430E-03
               5.4907187193802172E-03
               4.2731845057970442E-03
              -1.8208385158079944E-03
               1.9185702998851433E-03
              -2.8460136396313775E-03
              -3.8935564089974256E-03
               1.7795905899586201E-02
              -1.1254583247997381E-03
              -3.4821846089538172E-03
               3.7421584660481395E-03
               7.7992317050325985E-03
               2.1356164776738587E-02
               1.0785928568520465E-03
              -1.6047017116545402E-02
              -4.9427496040179580E-04
               5.7723957196307131E-03
              -4.2538434984262016E-03
               7.5609036777623288E-03
              -5.2295397037546102E-03
               4.4034528191471252E-04
               2.0229830753876610E-01
               2.7241907338042819E-02
               2.0109303243359349E-02
               6.2073384695064864E-03
               5.3298793871694094E-04
               1.0935202615150805E-04
               2.3179056864618131E-01
               8.1137917248622821E-02
               3.8740833643900352E-02
              -4.9069525674281861E-03
               4.3220820206627273E-03
               2.3598148206584726E-03
               1.4933256016401466E-02
              -7.4229535170686981E-03
              -5.6850508748145737E-04
              -4.9314057436533800E-03
              -3.7816033358243585E-03
               4.8476925463772262E-03
               7.6675318762502226E-03
               3.0512515377439800E-03
               1.8370062213870129E-03
               7.9982573944309947E-03
              -6.3503722219538710E-03
               1.2759945477233288E-03
              -4.3733883781553748E-03
               2.6872428307489786E-03
              -2.2177805054362894E-04
              -1.9724988211203462E-03
              -1.8933734895769587E-03
               2.7226098215783609E-03
              -8.5032620178064726E-03
              -3.3274028721224968E-03
               2.7272453768902400E-03
               5.6116887074518212E-03
              -9.8590412691470040E-03
               1.7176222882683941E-02
              -4.8402586162903235E-03
               1.6597057282766291E-03
               5.1669337133192737E-03
               2.1248509602799495E-03
              -2.6184274640334839E-03
               2.1002052330216271E-03
              -1.5484048658720086E-02
               1.7216039343502413E-02
               1.6695756367134710E-03
               7.5068490912956727E-03
              -3.2700682442075068E-03
               2.9450093574830446E-03
              -1.1558624012346953E-02
               6.3178239373698659E-04
               7.4101992504116299E-03
               3.8296417452045460E-03
              -1.9023645750763972E-03
               7.3901282143460974E-03
              -1.6964503982065293E-03
               1.0839280818992884E-03
              -2.0831716531454240E-03
               6.2570231029473681E-03
              -8.2760219550229407E-03
               4.7380559212064875E-03
               1.3473522585369480E-02
              -1.0959854465754962E-02
              -2.0814137174097751E-03
               3.1139781562028292E-03
              -5.7062754795077968E-04
               1.0158849948569673E-03
              -1.3788115741579043E-04
               8.1343752851674653E-03
               2.4649881501509915E-03
              -4.1049467064684297E-03
               8.8704241725398906E-04
              -3.0750917358999016E-03
              -1.0007385440554501E-04
              -2.1401640576413569E-03
              -6.5350703964008926E-03
              -7.1237129656419665E-03
               1.3568320724919068E-02
              -3.9647799679715101E-03
              -3.7401917002565866E-03
               5.2194416686692476E-03
               1.1515138124555546E-02
              -3.2079105693417096E-03
              -5.1462798949561128E-03
               3.1273035610452750E-03
              -1.0051291171518267E-02
               1.7089862117288033E-03
               1.0457027329649976E-02
               3.1391911886258571E-03
               4.1071958541093363E-03
              -4.1968587702340601E-03
               5.1567648163742871E-03
              -1.0980184629211982E-03
               1.5178760180090722E-04
               8.5283864485389887E-04
               6.7368149498750539E-04
               5.5117134867664914E-03
               3.7772220456057493E-02
              -1.8384635573497825E-03
               3.7657205784854771E-02
              -1.0262302085621271E-03
               1.3422726441825008E-03
               1.5292535094029557E-03
              -2.0437755701780390E-04
               1.3039682593935474E-02
              -4.7050128206640859E-03
               8.2946269617854458E-03
              -1.2007733174912834E-02
              -9.9058976588954160E-03
               5.6956698094209387E-03
              -7.3558831621576698E-03
               1.1387434215954007E-02
               1.2781137235554861E-03
              -6.4367048046581115E-03
              -9.5909979082525667E-04
               1.7966169620083428E-03
               4.7642712604910049E-04
               4.0866571534839318E-03
               7.9038521810603161E-04
              -5.9460888122084259E-03
              -4.7034952723094576E-04
              -7.7446800601572380E-03
               8.6970777044188940E-03
              -2.7533767795115786E-03
               1.2873313971837110E-02
               6.2917339310426899E-03
              -1.8231379810073740E-02
              -1.0270153190824989E-04
              -3.7415649153188209E-04
               2.3882536660973382E-03
               1.0838905240968229E-02
               8.3793703290893657E-03
              -1.0323326069894273E-02
              -7.7067270311316815E-03
              -3.4260559330562147E-03
               9.1834632045960599E-03
               5.1793458236858740E-03
               2.1252486764057562E-03
               3.1363463620401417E-03
               1.9749907682137559E-02
               1.1874241991593199E-02
               1.1526247665990888E-03
               3.1306310353001066E-03
               4.5138681503066221E-03
              -6.2870649596822020E-04
              -8.0077256337875002E-03
              -4.2433568939089410E-03
               8.5984495337187786E-03
               2.0118377384287112E-03
              -1.3819956333910740E-03
              -1.4233118044460510E-03
              -6.3168082776739699E-03
               5.3766412450586640E-03
               7.1565616737149741E-03
               4.6041329580377346E-03
              -3.5827140584124111E-04
               6.9185735968625758E-03
              -7.3056089001152340E-03
               4.3364312344828229E-03
               5.0928661910292867E-03
              -9.0582727067270233E-03
               1.1321619694120114E-03
               3.0764542203235582E-03
               4.3587326281806756E-03
               1.6364840334966305E-03
              -1.0821841475204671E-03
               4.8413856570387864E-03
              -4.3293073491572831E-03
              -7.4498865227662220E-03
               8.0182209244767690E-03
               6.4709772871468412E-03
               2.8441028057864717E-03
               8.1963602386714018E-03
               1.0009993985625563E-03
              -8.8326214496193718E-03
               9.2575871040457280E-03
               5.2426857216610655E-03
              -3.8221252517188688E-03
              -1.1770492210473122E-04
              -6.6791554670219905E-03
               3.5187711889927906E-03
               1.1620950491959905E-03
              -1.4226866169178378E-03
               3.1093316090596325E-03
              -1.6513778811332795E-03
              -5.8103018460611113E-03
              -7.7719600049727545E-03
              -1.8543495802680835E-03
               1.2722550376743911E-03
               1.3800207907396389E-02
               3.8735874449088142E-03
              -1.0797500548026622E-02
               1.0252850172485835E-02
               5.2134285557724359E-03
               4.4157463395166213E-03
              -2.2890297437931334E-02
              -1.1770461764291766E-02
              -3.6457884418010413E-04
               6.4494820769517985E-03
               9.9554258129953962E-04
              -6.2935786482006299E-04
              -1.4941292625555746E-03
              -3.0229128869105589E-03
              -6.7299133265148990E-03
              -3.8380654326935098E-03
               2.9282091326834330E-03
               7.7349258912897010E-03
               3.0612022235508461E-03
               5.2721084446568228E-03
              -3.1509242460588702E-03
               2.5132136495661293E-04
              -2.3942757688498118E-02
              -4.7915373586642895E-03
               2.1924964187336232E-02
               2.3030174078711237E-03
               7.2061689732687987E-03
               6.1433754503320602E-03
              -6.8942307991203232E-03
               6.7150263061650914E-03
               2.1659102185357253E-04
              -6.4867410679800234E-03
               7.3526472153510975E-03
               9.9892429445463797E-04
              -7.1952293635921356E-03
               1.1982139993571403E-03
               4.3699615592253573E-03
              -4.1423642699387388E-03
              -4.7313868637825912E-03
               7.0703681623829817E-03
              -8.0005021697910350E-03
              -6.7999386834722651E-03
              -6.6599846590492283E-03
               3.6824547129889621E-03
               1.3868910672362067E-03
              -4.5444795092143163E-03
              -6.0226713810596045E-04
               8.8473096936306957E-03
              -2.8785465539502941E-03
              -4.5277899913526093E-03
               7.7360764396575531E-03
              -1.1267601382337246E-02
               4.2808808317630186E-04
               6.3637941868734922E-03
               1.0936050281132328E-02
              -1.2879504539537749E-03
               4.4311477587995630E-03
               9.1924610344878695E-04
               9.6593235805709568E-03
              -3.5090681551457658E-03
              -7.4283928857693223E-03
              -1.0594238874133773E-02
               7.8707023750023801E-03
               5.4521037196638058E-03
               1.4667759892506307E-03
              -4.6690265197934042E-03
              -2.4057886301923946E-03
               2.4098913582429565E-03
              -3.6720392008969599E-03
              -1.0725272095119113E-02
              -1.5573200229303464E-02
               1.0292925153096866E-03
               1.3680020518498877E-02
               3.3838134646827956E-03
              -3.6026568402654918E-04
              -1.0946111783313433E-03
               2.8709357137681230E-03
               1.3956498500336100E-04
               1.3091432397100088E-03
              -3.9168192420379376E-03
               1.3003761155834011E-03
               5.7029685686325769E-03
               2.1710793979620720E-03
               4.7453790352040438E-03
               6.6371606368066244E-03
               1.2311581378593645E-02
               4.7848147709873617E-04
              -1.4945398584452999E-02
              -4.4047452797758057E-03
               1.1844400244061821E-03
               2.7388066315003944E-03
              -2.7632556887978907E-03
              -5.6152178355956296E-03
              -9.7581792697715962E-03
              -5.0377491837445996E-03
               3.6873695968780880E-03
              -2.6285861774906060E-03
               2.3526167566239355E-03
               1.7188412177716968E-03
               8.7906505088064003E-03
              -2.5086977946949598E-03
               4.3050313164328183E-03
               1.0114358936054101E-02
               3.9651223270003948E-04
              -1.1175386636915519E-02
              -2.1682394575190419E-03
               1.4104174360752323E-02
              -9.6603336769036183E-03
              -2.8630831485930066E-03
              -2.6995976789520202E-03
               7.6029005877320845E-03
               1.2404220088923531E-03
               5.2242781661572047E-04
               1.2106938563559533E-02
              -3.0958581439998068E-03
              -5.2576309756994307E-04
               8.2986519042753024E-04
              -3.3900117995064650E-03
              -4.5502274383924677E-03
              -2.5755793187077457E-03
               3.6911443973796140E-03
               4.3816607576089329E-03
               6.1671089806221717E-06
               2.6139859377538733E-03
              -5.4821302678307263E-03
               8.6602110472103998E-03
               8.2678616786275466E-04
               1.1057726259992200E-03
               5.6227457761090305E-03
               8.6481808236212772E-03
               8.3596860192698512E-03
              -7.5252004511776847E-03
              -5.4747413917507204E-03
               1.5386285710186408E-03
               1.5981685322958680E-03
               2.4569487955796434E-03
               9.5626489734128000E-03
               6.1149825696247022E-03
               1.1725994675380646E-03
               7.3548876455633164E-03
              -1.8459350872232692E-02
               1.4029096839102882E-02
              -3.3819940149339221E-04
              -1.2640416122676952E-02
               1.9653402891653912E-03
               4.8306512406588271E-03
               3.2826162590858807E-03
               2.3490604115738861E-03
              -5.8656307774711527E-03
               8.5428994370206363E-03
              -4.8229348864445958E-03
              -1.0363144440387556E-02
               9.7032257020631587E-03
              -1.2234716677141214E-02
              -3.4663629195041965E-03
               5.2541195100497240E-04
               2.4299141235195726E-03
               7.5982949908729204E-03
              -8.0405336607505106E-03
              -1.7581722516126603E-03
              -3.2162626419480588E-04
              -5.8212742256649463E-03
               2.2149345912127628E-03
               5.5565491550415582E-04
              -5.9896141368587516E-03
              -5.6315628050422287E-03
              -1.2703784601239345E-04
               8.2488551055145834E-04
               1.4160755926692104E-02
               9.5113628912879260E-03
              -5.5606664355412295E-03
              -7.0484640383638806E-03
               2.7699918271087415E-04
               3.5672375389988898E-03
               4.6379279718808145E-05
              -1.2664721770791146E-03
               3.8848098134673409E-04
              -4.5630964037999544E-03
               1.7837203889348172E-04
               1.4644193620212964E-03
              -2.5906538755880184E-03
               1.6055719204532341E-03
              -2.9432872726223099E-03
              -2.0410440028964176E-03
              -5.1178515769711725E-04
               7.0450044722517842E-03
               8.5660237272838797E-03
               4.7833294984524401E-03
              -1.8926083480484562E-03
               3.4079671316248274E-03
               4.3821373192245419E-04
               1.6360446514205340E-03
              -3.3861465924957422E-03
              -2.1193587863661775E-03
               2.4311169234427022E-03
              -3.5552875874276498E-03
               9.8012153867849160E-04
               2.8206386063447150E-04
               6.1429818555726445E-03
               9.7367229259605369E-04
               2.2232016875860629E-03
               9.4061677922731209E-05
              -1.9336669986408943E-03
              -7.4407725483886730E-03
               7.8337225532641008E-03
               1.7825743987558477E-03
              -2.2194464864907773E-03
              -3.9457207856167858E-04
              -2.7080255925179845E-03
               1.7979527324533447E-03
              -2.5112885015480682E-03
              -1.2415508639842482E-02
               4.0347868071138847E-03
              -2.7592232774132524E-03
               1.4518230523051442E-02
               8.3402028850482791E-03
              -8.1958437062096910E-03
         &END THERMOSTAT_ENERGY
         &RNG_INIT
Wiener process for Thermostat # 1        1 F T T   1.0570193072987602E-01        2554248455.0        3733268398.0        2096963647.0         915983833.0        1292997779.0         989563289.0             12345.0             12345.0             12345.0             12345.0             12345.0             12345.0             12345.0             12345.0             12345.0             12345.0             12345.0             12345.0
Wiener process for Thermostat # 2        1 F T T  -5.0729818522276993E-01         187792199.0        1332764939.0        1272087322.0         282682701.0         988697858.0        4086000388.0        3692455944.0        1366884236.0        2968912127.0         335948734.0        4161675175.0         475798818.0        3692455944.0        1366884236.0        2968912127.0         335948734.0        4161675175.0         475798818.0
Wiener process for Thermostat # 3        1 F T T   8.9774137220556466E-02        3755061031.0        1753083868.0        1351179932.0         343881147.0        3312142877.0        1244557929.0        1015873554.0        1310354410.0        2249465273.0         994084013.0        2912484720.0        3876682925.0        1015873554.0        1310354410.0        2249465273.0         994084013.0        2912484720.0        3876682925.0
Wiener process for Thermostat # 4        1 F T T   2.1447125495896904E-01        2430503636.0         902227617.0        3039217662.0         205693714.0        2375800914.0        4220709598.0        2338701263.0        1119171942.0        2570676563.0         317077452.0        3194180850.0         618832124.0        2338701263.0        1119171942.0        2570676563.0         317077452.0        3194180850.0         618832124.0
Wiener process for Thermostat # 5        1 F T T  -7.4974817695318574E-01        3949927612.0        4293465109.0         224208328.0         677588237.0        2173092809.0        2514687022.0        1597262096.0        3906379055.0        3312112953.0        1016013135.0        4099474108.0         275305423.0        1597262096.0        3906379055.0        3312112953.0        1016013135.0        4099474108.0         275305423.0
Wiener process for Thermostat # 6        1 F T T  -2.3195632299180402E+00        4147399821.0         968438491.0         174961265.0         382156541.0        3672303660.0        2385050302.0          97147054.0        3131372450.0         829345164.0        3691032523.0        3006063034.0        4259826321.0          97147054.0        3131372450.0         829345164.0        3691032523.0        3006063034.0        4259826321.0
Wiener process for Thermostat # 7        1 F T T  -8.3038096976097500E-03        3725962017.0        3124905816.0        1692649901.0        3685368087.0         990134651.0        3321809881.0         796079799.0        2105258207.0         955365076.0        2923159030.0        4116632677.0        3067683584.0         796079799.0        2105258207.0         955365076.0        2923159030.0        4116632677.0        3067683584.0
Wiener process for Thermostat # 8        1 F T T   7.2955713326517235E-01        1426374835.0        1022225665.0        3431852557.0        2945126969.0        1347790872.0        2047858768.0        3281794178.0        2616230133.0        1457051261.0        2762791137.0        2480527362.0        2282316169.0        3281794178.0        2616230133.0        1457051261.0        2762791137.0        2480527362.0        2282316169.0
Wiener process for Thermostat # 9        1 F T T  -8.3876742673612970E-01        3633457436.0         863053678.0         665967915.0         928783000.0        4027924725.0        3556250224.0        3777646647.0        1837464056.0        4204654757.0         664239048.0        4190510072.0        2959195122.0        3777646647.0        1837464056.0        4204654757.0         664239048.0        4190510072.0        2959195122.0
Wiener process for Thermostat # 10       1 F T T  -6.7138423863751628E-01        3282585865.0         909372753.0         488063086.0        2442536289.0         174422437.0         477575080.0        4215590817.0        3862461878.0        1087200967.0        1544910132.0         936383720.0        1611370123.0        4215590817.0        3862461878.0        1087200967.0        1544910132.0         936383720.0        1611370123.0
Wiener process for Thermostat # 11       1 F T T  -7.2169956836733329E-02        3039538231.0          25912629.0        1608189467.0        1823124278.0        2331127605.0        2449500504.0        1683636369.0         362165168.0         814316280.0         869382050.0         980203903.0        2062101717.0        1683636369.0         362165168.0         814316280.0         869382050.0         980203903.0        2062101717.0
Wiener process for Thermostat # 12       1 F T T  -6.7722400494670465E-01        2762226669.0        4262778377.0        2250707948.0        3120407528.0        3704866228.0        1185520965.0         272317999.0         166758548.0         310112982.0         201045826.0        1680231254.0         118290799.0         272317999.0         166758548.0         310112982.0         201045826.0        1680231254.0         118290799.0
Wiener process for Thermostat # 13       1 F T T  -7.3817531449270457E-01        3689403510.0         367299738.0        3636386471.0        1925893934.0        3355800516.0        3520562622.0        2245755202.0        1652682525.0        2865544364.0         721509566.0         209733568.0         592362218.0        2245755202.0        1652682525.0        2865544364.0         721509566.0         209733568.0         592362218.0