 # Version information for this restart file 
 # current date 2024-03-19 21:17:45.017
 # current working dir /home/mp6576/comp-class-2023/comp-lab-class-2023/Week12/Runs/Proton
 # Program compiled at                              Sat Dec 12 18:27:15 EST 2020
 # Program compiled on                                         cs001.nyu.cluster
 # Program compiled for                                                nyu-intel
 # Source code revision number                                       git:8c64c6e
 &GLOBAL
   PRINT_LEVEL  LOW
   PROJECT_NAME proton_aimd_1ns_every0.5fs
   RUN_TYPE  MD
   WALLTIME 21600
 &END GLOBAL
 &MOTION
   &GEO_OPT
     OPTIMIZER  BFGS
     MAX_ITER  100
     MAX_DR     3.0000000000000001E-03
     &BFGS
     &END BFGS
   &END GEO_OPT
   &MD
     ENSEMBLE  NVT
     STEPS  2000
     TIMESTEP     4.9999999999999994E-01
     STEP_START_VAL  1998
     TIME_START_VAL     9.9899999999998238E+02
     ECONS_START_VAL    -1.1018977434131896E+03
     TEMPERATURE     3.0000000000000000E+02
     &THERMOSTAT
       TYPE  GLE
       REGION  MASSIVE
       &GLE
         NDIM  5
         A_SCALE     1.0000000000000000E+00
         A_LIST     1.8595758612559999E+02    2.7263853498399998E-01    1.1526100454610001E+01   -3.6414578262600003E+01 \
             2.3173375816020001E+02
         A_LIST    -2.7809524712060002E-01    8.5951591808710006E-05    7.2189048017650004E-01   -1.9844539343859999E-01 \
             4.2409257583420001E-01
         A_LIST    -1.4825808131210000E+01   -7.2189048017650004E-01    1.3590902121280000E+00    5.1498896280349999E+00 \
            -9.9949268450990001E+00
         A_LIST    -1.0372189126880000E+01    1.9844539343859999E-01   -5.1498896280349999E+00    2.6661910891169999E+01 \
             1.1507715495310000E+01
         A_LIST     2.1801346360420001E+02   -4.2409257583420001E-01    9.9949268450990001E+00   -1.1507715495310000E+01 \
             3.0958394565589998E+02
         &THERMOSTAT_ENERGY
               2.3366243030025482E-03
               7.3335334208981021E-04
               1.9801580716413128E-03
              -1.1246661047826206E-03
              -1.4048548722844844E-02
               1.0935064293303878E-03
              -3.4986173336874530E-03
               1.8490737589064838E-03
               1.0695724834219572E-02
               3.7998575651980861E-04
               7.4248854098827744E-03
               4.7250614863313598E-03
               7.7530841967270473E-03
              -9.6301447124254869E-03
               9.8193254368317082E-03
              -7.9013772003878203E-03
              -6.2414747929870912E-03
              -6.2130944664698156E-03
               2.1782630460528227E-03
               2.7018711945192678E-05
               6.0056766058474492E-03
               9.3215723376693285E-03
              -1.3276743779780048E-02
               2.5689231015078584E-03
               7.7777345404140431E-03
              -3.7010982835616862E-03
              -1.9740698769547169E-03
               6.4997566727522695E-04
               8.2506708890239214E-04
               6.3307318429543596E-04
              -7.9214110237643392E-03
              -3.7121881586528629E-03
               4.4137901232519736E-03
               3.1701857604889742E-03
              -7.8664112881513485E-03
               1.3078248243051425E-02
              -1.0413821123050513E-03
              -3.4043813561172144E-03
               1.1742255462260276E-03
               1.1227620563488158E-03
              -2.4381021421291397E-04
              -1.2644661590566786E-02
              -4.1098767519637865E-03
               8.5354051822395510E-03
               4.9475186485164304E-03
               6.2816273819684106E-03
               3.3300639886249756E-04
              -4.1413604231724209E-03
               9.5428789014843744E-03
              -7.1792224024985578E-03
               9.2595780081226979E-03
               8.6277276554248099E-03
              -2.3667131885614554E-03
               8.7629177328718035E-03
              -5.6722193413510057E-03
              -1.6163560558287954E-03
               4.1421533802894371E-04
               4.6315899432526359E-03
               3.2997882703828477E-03
               1.3981976349204054E-05
              -7.7005671056001260E-03
              -1.9193167073621577E-03
               1.8921351644311805E-02
               1.4775876621985065E-04
               1.1613274632588820E-03
               5.7012370656288952E-03
              -9.5102205640594968E-03
               5.6123497337206198E-03
               1.7129341149569110E-02
              -1.2390466156729806E-03
              -6.3401982668882355E-03
              -1.8953565101042741E-03
              -7.5460745842825406E-03
               6.9942289301530083E-03
              -3.1295589562667166E-03
              -1.5362202324183623E-02
               7.1731233165426228E-03
               2.3671614560817227E-02
               1.3015602524300448E-02
              -7.9495527779778734E-03
              -1.6571244928797464E-03
              -1.1700274649107188E-02
               5.8739676849427023E-03
               3.9436097935600985E-03
              -1.5415110650878678E-03
               5.2941410062781217E-03
               5.5831082717256904E-03
              -1.3098448304340088E-02
               3.6999932133577459E-03
              -6.1903095906898787E-03
               7.2020190756741788E-04
              -3.4733481754574487E-03
              -8.6982078751632807E-04
              -8.1328814958638550E-03
              -1.1792829107423391E-02
               7.7437728532425958E-03
               5.7627409979174784E-03
              -2.2303316029178414E-03
               1.0249705806542501E-02
               1.8202256466997616E-03
               9.1761238742797228E-03
              -9.1474298348210008E-03
              -5.0885236949734921E-03
               1.4747266278321080E-02
              -3.7836038757216761E-03
               8.4961879949313462E-03
               1.4981061497651316E-02
               1.5815739087463067E-02
               5.2236131028929791E-03
              -5.2825111582694689E-03
               1.1565933517927094E-03
              -1.0575344795506394E-03
               1.1204750698791389E-02
              -1.3327709356554551E-03
               1.7579276093381282E-03
              -8.5937177577166870E-03
              -4.3809098977967264E-03
               4.8637459679307807E-03
              -2.0311272277036365E-03
               1.3696094524086302E-03
               6.5060014413769844E-03
               7.1176206260288996E-03
              -8.0290077965034547E-03
              -6.3142159559673268E-03
               2.7773428670479065E-03
              -2.2734379266189809E-03
               3.7258382010338415E-03
              -2.8555490948338623E-03
              -1.3712722183052890E-04
               3.6802045294503866E-03
              -8.3699761572136027E-03
              -1.6550068140828533E-05
              -1.5012812808647801E-03
              -3.6602406028325334E-03
               9.0488875488262260E-03
               1.0459473648335841E-03
              -4.2053877930411810E-03
              -7.9003828675483709E-03
              -2.4581033251838981E-03
              -1.9500789101120162E-03
               4.6486016263145953E-03
               9.7952880903812590E-03
               3.5863654675506056E-03
              -6.4561473202873467E-03
              -2.7736284486965597E-03
              -1.3047719793067040E-03
               2.4692348362848962E-03
               9.3208916721705427E-03
              -1.0405095245040869E-02
              -4.7312640109186035E-03
              -1.5664917619514062E-02
               5.7088259788626089E-03
               3.2925930211385526E-03
               7.4032391537468580E-03
               7.3060643991256545E-03
               1.5414104680044319E-03
              -1.0085171404222218E-03
               1.0405650294472376E-02
              -7.8502591562432233E-03
              -2.9803210024820898E-03
               1.2297411020580505E-02
              -2.8880259451717866E-03
              -1.9895371223739283E-03
               2.2584379130854079E-03
               1.5997390886505182E-02
               2.4292361088101039E-02
               4.9197590934044614E-03
              -2.9843335993564327E-02
               5.7526966461779391E-03
               9.8030301126059115E-03
              -9.3459737463444607E-03
               4.9869640811048511E-03
               5.7700862048147729E-05
              -3.1942665467631151E-03
               1.9824723757525853E-01
               2.5916470265687587E-02
               2.4819899996620345E-02
               8.3035926889735330E-03
              -1.2585342451820361E-03
              -9.3732117545706466E-03
               2.4023962606770877E-01
               8.3810282781984255E-02
               3.3163179999398322E-02
              -6.2975134352018930E-03
               5.6028149321381490E-03
               2.2417739819403618E-03
               1.5139224956093149E-02
              -8.7387770948187272E-03
              -1.9099548254458702E-03
              -3.3711585463211671E-03
              -8.8529948599981746E-03
               4.6979191525921647E-03
               1.1435171786895609E-02
               1.8519816593738697E-03
               2.0086953019790759E-03
               1.9650873093831696E-03
              -5.7101152778609799E-03
               4.3126538995223694E-03
              -7.9537241596366673E-03
               1.4426933907097602E-03
               2.9155030346381438E-03
               1.5483735096397111E-03
              -2.7076275869986522E-03
               2.4987479981801630E-03
              -1.0922415302481090E-02
              -7.5542504736122720E-03
               2.6566413522208956E-03
               1.3667259202407318E-02
              -1.2091336529765115E-02
               2.1379347045009087E-02
              -3.9524044388684692E-04
              -1.5149012584297729E-03
               4.5882449752143615E-03
               4.6230841523407047E-03
              -6.6158795485020289E-05
              -2.5033030898310510E-04
              -1.1553077567024851E-02
               1.6616687170344573E-02
              -4.9258499853732938E-03
               3.1744195957748604E-03
              -5.4391682874818173E-03
               9.2580297621781740E-04
              -1.0331773183437058E-02
               6.9342252593858323E-04
               9.0292416278135220E-03
               3.1843336714921983E-03
              -2.5612694730622640E-03
               1.1862147246472225E-03
              -1.4994033563938405E-03
               5.3007338977364288E-04
              -4.0839969339764755E-03
               2.8661334129285142E-03
              -3.3170206896854610E-03
              -5.7920412803156684E-04
               1.4574980792222829E-02
              -5.1532693751472599E-03
              -3.6274899808092695E-03
               3.7495306369855984E-03
               5.5974651476598067E-04
               1.5063537480005090E-04
               4.2498054662128328E-03
               1.0255544281225057E-02
              -1.6112511075430597E-03
              -5.0590126597093669E-03
               1.4408383681148641E-04
               2.8813235531976763E-03
               1.3178018837088279E-03
              -6.4395174730388899E-05
              -5.6872798165047891E-03
              -1.1589271912995133E-02
               1.7217922436576927E-02
              -6.6447521228499545E-03
              -6.9113012786799289E-03
               6.3669048983361030E-03
               1.0947247119092118E-02
              -6.1554773903809128E-03
              -6.3816160113638280E-03
               4.3548581070139095E-03
              -6.8305820435484495E-03
              -3.0924515509185508E-03
               6.0928746391848655E-03
               9.6652951394920559E-03
               8.0720529925444031E-04
              -3.5945282359689103E-03
               9.3281705558126860E-03
               4.6373546650817629E-03
               1.2961692341791582E-04
              -2.0550474346141562E-03
               1.5816795735252930E-04
               5.2159497095269321E-03
               3.7680293382701215E-02
              -6.7939303635805902E-03
               3.9290020184690744E-02
              -5.2008003919005851E-03
               3.9782090635830762E-03
               2.3624972800471390E-03
               6.6784722414880825E-03
               1.4865720530264297E-02
              -9.0101063596881911E-03
               8.6856710024752481E-03
              -1.9540121247703553E-02
              -1.9935461056077709E-03
               4.0744295736910028E-04
              -1.0748004155267381E-02
               8.4457085181755091E-03
              -3.1471346264757769E-03
               3.3901436011234912E-04
               2.4868920835259133E-03
               7.9418243345405481E-03
              -1.2432326072573658E-02
               1.2250123810983530E-02
               2.2778333128735673E-03
              -7.8812060548271237E-03
               2.2853620371896671E-04
              -5.4011848582934344E-03
               5.6656186242177034E-03
              -6.0587757580292051E-03
               1.1624187076591795E-02
               8.7020053189992858E-03
              -1.2810299584415017E-02
               1.4956270466858221E-03
               8.4795861069401185E-04
               3.0678664328077417E-03
               2.1572254206255352E-02
               3.4556527093618232E-03
              -1.8380938356198192E-02
              -4.2132063649610091E-03
              -5.3983832428843546E-03
               1.5320004008837481E-02
               4.9541701095071229E-03
              -8.2590701790810855E-04
               2.6084053101537961E-03
               1.1567795421551267E-02
               1.4230531895481218E-02
               6.1075490314989652E-03
               6.3717603417044028E-04
               1.0073254196863694E-02
               2.5626564529093866E-03
              -1.1088756392492845E-02
              -3.1926780112308609E-03
               5.9714408112876947E-03
               3.7287884141157576E-03
              -9.1806731411704233E-04
               9.6887072196843278E-04
              -6.7048627022932511E-03
               5.0905463806491290E-03
               1.1769558466094916E-02
               7.4021700818407967E-03
              -3.3383514361752818E-04
               7.2466378488536490E-03
              -1.3276525203604683E-02
               6.5377824573463464E-03
               5.4796341153377408E-03
              -1.5625521101607906E-02
               5.5913275542102559E-03
               7.3811473573535758E-03
               3.1580872132916465E-03
              -1.3144451589934066E-03
               3.8250996400465221E-03
               7.2809715860871309E-03
              -2.9666188391903304E-03
              -8.8185628855455243E-03
               6.6201071011584350E-03
               1.3949969871911902E-02
              -3.1674833978620337E-03
               8.2453130003724649E-03
               4.3302289905354226E-04
              -1.3553488657746842E-02
               1.2566789293765418E-02
               7.7112828090306566E-03
              -4.3568529141307733E-03
               2.6147217230674288E-04
              -4.9307118707950306E-03
               5.6386724324243654E-03
               2.1019507385664198E-03
              -2.2385146350616392E-03
               5.1970856212013705E-03
              -9.1782875510471517E-04
              -1.6209917642277159E-02
               2.3271802581076835E-03
               1.0734326043688592E-03
              -7.6436656194724143E-03
               2.4500961725935050E-02
               3.0113891841376758E-03
              -6.9779784301538484E-03
               6.1125888537271753E-03
               3.3156252539529021E-03
               2.9561917773629686E-03
              -1.7870286421258486E-02
              -9.2133902144493820E-03
              -2.5199731479303881E-04
               4.6426043748732868E-03
               4.0383733746008699E-03
              -2.6018234645395267E-03
               1.2429086795342030E-03
              -1.3297366718519170E-03
              -4.3954037057839556E-03
              -6.7270971569694761E-03
               1.6815309391891024E-03
               4.3517129087404629E-03
               5.3511117721769504E-03
               5.2831862110051375E-03
              -2.1550056279329420E-03
              -8.9496589549388885E-04
              -1.9319066986686173E-02
              -9.9720769934391433E-03
               1.9348840962384938E-02
              -1.7373373651520044E-03
               6.2110225998728615E-03
               4.3526166211242546E-03
              -1.0719315065955097E-02
               7.4143592962628933E-03
               2.2039407566211062E-03
              -9.7339279248501720E-03
               1.1468924522063594E-02
               5.2429402035690928E-03
              -2.1274859037672079E-03
              -7.8896442493026943E-03
               5.4486199666416418E-03
              -5.8077006008575294E-03
              -2.5221462258257538E-03
               6.4576151772933951E-03
               4.3202420117788830E-04
              -7.2729810238626588E-03
              -1.9435562585472380E-03
              -6.0848682465136023E-03
               1.6756793070704604E-03
              -1.4821947713166883E-03
              -1.2557388407243718E-03
               4.5169554553883473E-03
              -2.0511485004188535E-03
              -4.6182913683919819E-03
               6.4696693382882723E-03
              -4.7867091975924139E-03
               1.5201233296271242E-03
               2.2431686339287431E-03
               5.6607513805149515E-03
              -5.9241469557851102E-05
               4.9820435629563539E-04
               2.8892778280658078E-03
               7.7207040504202159E-03
              -1.4328687169732960E-03
              -7.4456273406315982E-03
              -1.2354460755376247E-02
               7.5623963633341430E-03
               8.1915194592921889E-03
              -4.8458295807893128E-03
              -5.5557823311063060E-03
              -3.2269640552591576E-03
               4.8692709170565455E-03
              -5.1237540730647612E-03
              -1.1642329223668956E-02
              -1.5353232506389093E-02
               9.5123728920184971E-03
               1.4201784570883443E-02
               2.7977265122166341E-03
              -4.1113559449920296E-03
               3.1143626440284983E-04
               3.6475195912971728E-03
              -2.0562690931359073E-03
              -5.6480735837196499E-03
              -7.8478897478725176E-03
               1.9747792069531090E-03
               6.3537536635964557E-03
               2.3686637851251819E-03
               6.9703396884916117E-03
               2.5016482144743233E-03
               1.4609951220575285E-02
               7.7660286636429231E-03
              -1.1043520203377694E-02
              -4.6968553631943910E-03
              -6.4802780378645361E-03
               5.5360984425853145E-03
              -1.0298118320445919E-03
              -2.7626814274235843E-03
              -1.0852020332284915E-02
              -7.2687619051712213E-03
               3.4739634532549922E-03
              -6.2783288839476595E-03
              -1.1330759765267061E-02
               5.3034018391647448E-03
               1.7659257931917516E-02
              -5.5588989276917893E-03
               6.5604079025069345E-03
               7.2364143117966562E-03
               3.3534686395972220E-03
              -9.6991745355338322E-03
               1.4951821270636759E-04
               1.3091756502750606E-02
              -1.2869670164530823E-02
               2.9765138223448540E-06
              -5.1841055014594474E-03
               8.6563658414242836E-03
              -1.3599763201271409E-03
               4.0603461382640108E-03
               1.7768268874680460E-02
              -3.1065465872699965E-04
              -6.0312079873960220E-04
              -2.9734816131557090E-03
              -9.8646068043015921E-03
              -5.7859485837835935E-03
              -4.6344976550810107E-03
               4.2559134492007496E-03
               6.0867874743893817E-03
              -4.0129842764590811E-03
               2.7649956421850019E-03
              -5.2352137385626232E-03
               2.1220283454112523E-03
               7.0575726694234149E-03
               3.5421064119350401E-03
               3.1768156221131751E-03
               1.0984011640555232E-02
               1.0017281074786246E-02
              -9.0728789340625282E-03
              -4.4802278177345821E-03
              -2.4880207552018929E-04
               1.1943196724031616E-02
              -5.0047679081776566E-03
               7.8051947253456166E-03
               5.2529028231648360E-03
               3.2761342544091773E-03
               4.5768782671937493E-03
              -2.2314813421875766E-02
               1.8382567939564928E-02
               6.6046211570936599E-03
              -1.5770508329596176E-02
               6.9236335993443814E-05
               4.5912488640148233E-03
               5.6161774033349635E-03
              -6.0506411011537308E-04
              -1.2666301353673117E-03
               1.4847334107594170E-02
              -5.0083271573226010E-03
              -6.9532508535778102E-03
               2.3370675221509483E-03
              -1.2055879772227706E-02
              -6.2505191486088791E-03
               2.0059392477036375E-03
               2.5517116650619087E-03
               1.2243756866264130E-02
              -8.7867844478987829E-03
              -5.1782613377182301E-03
              -3.3151391802547711E-03
               2.6581037967510413E-04
               1.8486212249644992E-03
               3.9722235440860587E-03
              -3.1902744342782955E-03
              -8.7355837463407113E-03
               1.1118628846072814E-03
              -2.1092580389672202E-03
               1.6363946338132547E-02
               5.6463617225267319E-03
              -5.3775375279572178E-03
              -1.0526787791851070E-02
               3.2445444826643180E-03
               6.1541434062375167E-03
               6.1983606686034817E-05
              -7.0337972822539282E-04
              -6.2659784066091971E-05
              -6.8772359318016339E-03
              -6.5853210388034412E-03
               1.3104188231161678E-02
              -4.0436073462150734E-03
              -6.0198187945247148E-04
               3.6327768267234301E-03
              -7.3671957691615730E-03
              -3.1276606013466296E-03
               7.5967368169918793E-03
               1.0678306313029913E-02
               5.9730141560762505E-03
              -1.8904246407146664E-04
               3.7490011949507353E-03
               2.7281839241346255E-03
               4.7075364293618985E-03
              -3.9639192798547017E-03
              -4.0210267006778109E-04
              -2.4906112260212592E-03
              -6.4370070607790699E-03
               2.6605829950892244E-03
               5.0185475706582901E-04
               6.3106059189441191E-03
               3.8517235906752557E-03
               1.2260642177019303E-03
               2.1478121188703643E-03
              -3.6477846587134083E-03
              -6.2517779680666338E-04
               4.0879042190504269E-03
              -1.0028876775532429E-03
              -2.8966484145855828E-03
               2.1727278155362715E-03
              -9.5244538125374856E-03
               4.9257910038864820E-03
              -3.4012915624400068E-03
              -8.3950075025220703E-03
              -1.2458454150748794E-03
               6.7201331451858838E-03
               1.8486062533865665E-02
               7.6524554975946121E-03
              -6.5932801424232268E-03
         &END THERMOSTAT_ENERGY
         &RNG_INIT
Wiener process for Thermostat # 1        1 F T T  -1.5601997779545997E+00        4027757407.0        1559045809.0        3403552754.0        1703120254.0         453778739.0        2861026355.0             12345.0             12345.0             12345.0             12345.0             12345.0             12345.0             12345.0             12345.0             12345.0             12345.0             12345.0             12345.0
Wiener process for Thermostat # 2        1 F T T  -4.0112764818655514E-02        3838101567.0        1430396723.0        1556923290.0        2889325561.0         607612135.0        3761282217.0        3692455944.0        1366884236.0        2968912127.0         335948734.0        4161675175.0         475798818.0        3692455944.0        1366884236.0        2968912127.0         335948734.0        4161675175.0         475798818.0
Wiener process for Thermostat # 3        1 F T T  -2.7485675335982579E-01         482699311.0        2506409672.0        1202736307.0        1073196783.0        1141297417.0        2856513754.0        1015873554.0        1310354410.0        2249465273.0         994084013.0        2912484720.0        3876682925.0        1015873554.0        1310354410.0        2249465273.0         994084013.0        2912484720.0        3876682925.0
Wiener process for Thermostat # 4        1 F T T  -9.8957058820594379E-01        3129827523.0        3549124345.0        1353678049.0        1344233659.0        2578763699.0        1106953444.0        2338701263.0        1119171942.0        2570676563.0         317077452.0        3194180850.0         618832124.0        2338701263.0        1119171942.0        2570676563.0         317077452.0        3194180850.0         618832124.0
Wiener process for Thermostat # 5        1 F T T   8.1743834600370391E-01         587879607.0         702838090.0         820286405.0        1159088393.0        1840431053.0        2379049004.0        1597262096.0        3906379055.0        3312112953.0        1016013135.0        4099474108.0         275305423.0        1597262096.0        3906379055.0        3312112953.0        1016013135.0        4099474108.0         275305423.0
Wiener process for Thermostat # 6        1 F T T  -4.6635220676026440E-01        1255338812.0        2941627828.0        2767710176.0        1701464963.0        2824905014.0        2257709657.0          97147054.0        3131372450.0         829345164.0        3691032523.0        3006063034.0        4259826321.0          97147054.0        3131372450.0         829345164.0        3691032523.0        3006063034.0        4259826321.0
Wiener process for Thermostat # 7        1 F T T  -2.7221417990508723E-01        2928923925.0        1475590831.0        3028549759.0        1729569924.0         123262326.0        1965188850.0         796079799.0        2105258207.0         955365076.0        2923159030.0        4116632677.0        3067683584.0         796079799.0        2105258207.0         955365076.0        2923159030.0        4116632677.0        3067683584.0
Wiener process for Thermostat # 8        1 F T T  -1.3371509559371584E+00        3293786404.0        2324351260.0        4224364702.0        1341956089.0         912321799.0        2697559406.0        3281794178.0        2616230133.0        1457051261.0        2762791137.0        2480527362.0        2282316169.0        3281794178.0        2616230133.0        1457051261.0        2762791137.0        2480527362.0        2282316169.0
Wiener process for Thermostat # 9        1 F T T  -8.7225140957356684E-01         657961678.0        1513147170.0        2219186603.0        4111646695.0         616753226.0        2747528653.0        3777646647.0        1837464056.0        4204654757.0         664239048.0        4190510072.0        2959195122.0        3777646647.0        1837464056.0        4204654757.0         664239048.0        4190510072.0        2959195122.0
Wiener process for Thermostat # 10       1 F T T  -6.2889449580622436E-01          96284293.0        2446379684.0        3801610533.0        2961863039.0        1877110468.0         129512113.0        4215590817.0        3862461878.0        1087200967.0        1544910132.0         936383720.0        1611370123.0        4215590817.0        3862461878.0        1087200967.0        1544910132.0         936383720.0        1611370123.0
Wiener process for Thermostat # 11       1 F T T   5.7191327297384098E-01         909895394.0        1862319182.0        2400367466.0        1201802882.0        2818881371.0          83822050.0        1683636369.0         362165168.0         814316280.0         869382050.0         980203903.0        2062101717.0        1683636369.0         362165168.0         814316280.0         869382050.0         980203903.0        2062101717.0
Wiener process for Thermostat # 12       1 F T T  -2.0098512161557830E-01        4281566709.0        2729512869.0         275332126.0         437149450.0        1041778670.0        1778805263.0         272317999.0         166758548.0         310112982.0         201045826.0        1680231254.0         118290799.0         272317999.0         166758548.0         310112982.0         201045826.0        1680231254.0         118290799.0
Wiener process for Thermostat # 13       1 F T T   9.4560796151122029E-01        3557498645.0        2583014714.0        2425630516.0         920535172.0        3770643442.0         978988578.0        2245755202.0        1652682525.0        2865544364.0         721509566.0         209733568.0         592362218.0        2245755202.0        1652682525.0        2865544364.0         721509566.0         209733568.0         592362218.0