 # Version information for this restart file 
 # current date 2024-03-19 21:18:01.968
 # current working dir /home/mp6576/comp-class-2023/comp-lab-class-2023/Week12/Runs/Proton
 # Program compiled at                              Sat Dec 12 18:27:15 EST 2020
 # Program compiled on                                         cs001.nyu.cluster
 # Program compiled for                                                nyu-intel
 # Source code revision number                                       git:8c64c6e
 &GLOBAL
   PRINT_LEVEL  LOW
   PROJECT_NAME proton_aimd_1ns_every0.5fs
   RUN_TYPE  MD
   WALLTIME 21600
 &END GLOBAL
 &MOTION
   &GEO_OPT
     OPTIMIZER  BFGS
     MAX_ITER  100
     MAX_DR     3.0000000000000001E-03
     &BFGS
     &END BFGS
   &END GEO_OPT
   &MD
     ENSEMBLE  NVT
     STEPS  2000
     TIMESTEP     4.9999999999999994E-01
     STEP_START_VAL  2000
     TIME_START_VAL     9.9999999999998226E+02
     ECONS_START_VAL    -1.1018977434131896E+03
     TEMPERATURE     3.0000000000000000E+02
     &THERMOSTAT
       TYPE  GLE
       REGION  MASSIVE
       &GLE
         NDIM  5
         A_SCALE     1.0000000000000000E+00
         A_LIST     1.8595758612559999E+02    2.7263853498399998E-01    1.1526100454610001E+01   -3.6414578262600003E+01 \
             2.3173375816020001E+02
         A_LIST    -2.7809524712060002E-01    8.5951591808710006E-05    7.2189048017650004E-01   -1.9844539343859999E-01 \
             4.2409257583420001E-01
         A_LIST    -1.4825808131210000E+01   -7.2189048017650004E-01    1.3590902121280000E+00    5.1498896280349999E+00 \
            -9.9949268450990001E+00
         A_LIST    -1.0372189126880000E+01    1.9844539343859999E-01   -5.1498896280349999E+00    2.6661910891169999E+01 \
             1.1507715495310000E+01
         A_LIST     2.1801346360420001E+02   -4.2409257583420001E-01    9.9949268450990001E+00   -1.1507715495310000E+01 \
             3.0958394565589998E+02
         &THERMOSTAT_ENERGY
               1.5503546894136883E-03
               6.6636747015426411E-04
               2.5333118176067196E-03
              -1.3188815043920488E-03
              -1.4246441184197975E-02
               1.2020214728227969E-03
              -2.8743235238825261E-03
               1.6646898012383604E-03
               1.1068547961258437E-02
               4.8069226987423902E-04
               7.0472925193329639E-03
               4.8898586210020557E-03
               7.8627779771069262E-03
              -9.8355581954244729E-03
               9.2008972009680265E-03
              -7.8710194169159097E-03
              -6.1772157673218404E-03
              -5.7404982142849666E-03
               1.5677629368293922E-03
               2.1779122894661376E-04
               5.9855357328608451E-03
               9.4836778869938389E-03
              -1.2090572009657565E-02
               2.1573904488919279E-03
               7.8294458785944966E-03
              -4.2672361670220661E-03
              -1.9700715092372556E-03
               1.7289610040672827E-03
               7.6138085777122490E-04
               5.6985158817218502E-04
              -8.1031110806284654E-03
              -3.2343966334176816E-03
               4.4602962979859197E-03
               3.0580058639435885E-03
              -7.4787971427083128E-03
               1.2605527801720320E-02
              -1.0692028912485153E-03
              -3.2932911704723492E-03
               1.1072761882542359E-03
               1.0966185000600276E-03
              -2.5865014259698351E-04
              -1.3524290389143030E-02
              -4.2222338496076123E-03
               8.5325906353403164E-03
               4.9211461464129377E-03
               5.9059045767819217E-03
               1.5383666277027515E-04
              -3.7206903023706403E-03
               8.6029459599916477E-03
              -9.0972299675482170E-03
               9.4059458288015610E-03
               8.7002023373524816E-03
              -2.3614733786410606E-03
               8.6383451016229136E-03
              -5.5631111840710448E-03
              -1.0391405921478286E-03
              -1.3577322272698394E-04
               4.7766634295393672E-03
               3.0862437772152048E-03
               5.9880890716941374E-04
              -8.6428080413670488E-03
              -1.9103052513990612E-03
               1.9204425056649623E-02
               2.4149527384988493E-04
               8.0508963703804736E-04
               3.6240176544137174E-03
              -9.7551147179469229E-03
               4.7195575835647548E-03
               1.7094129866948519E-02
              -1.6335207680829621E-03
              -6.6043049537683474E-03
              -1.7461493633075191E-03
              -7.5145150385073573E-03
               6.9034511490169339E-03
              -3.1425364261129323E-03
              -1.5134115967822720E-02
               6.7513930554563006E-03
               2.3137588479925045E-02
               1.2609295174258597E-02
              -7.7827185713535236E-03
              -1.8718306382858754E-03
              -1.1198013670760478E-02
               5.9225222175698835E-03
               3.6452363150687316E-03
              -1.7987439779827519E-03
               6.1709537971227808E-03
               5.6466383201254399E-03
              -1.3528869265433707E-02
               3.4056030700656791E-03
              -6.4353709785453734E-03
               8.9537930866163615E-04
              -3.5863142383004273E-03
              -1.0554730199735464E-03
              -8.3904465215415124E-03
              -1.1702791999528998E-02
               7.7946288453376242E-03
               6.4409191115129376E-03
              -2.2551653179637356E-03
               1.0208837691540271E-02
               2.1011415989366780E-03
               9.8481064945851460E-03
              -8.7424835736863681E-03
              -5.1943705755523656E-03
               1.4456079165794000E-02
              -3.2077728208384695E-03
               9.0287557156619892E-03
               1.4917443122378245E-02
               1.6273780544165905E-02
               5.2721234957843347E-03
              -5.8580147036920768E-03
               1.4551107740909536E-03
              -7.6467199693652462E-04
               1.0629351366545520E-02
              -1.4721977984787592E-03
               1.0964019745160775E-03
              -8.5131806256899135E-03
              -4.5542966156269151E-03
               4.8678709746572107E-03
              -1.9142538424442271E-03
               1.5254002190821670E-03
               6.5374883262560171E-03
               7.0578802341567885E-03
              -7.5714038394241404E-03
              -6.3437538039662501E-03
               2.7813190216201076E-03
              -2.5709259887830181E-03
               4.0733348044141400E-03
              -3.0079430466360109E-03
              -6.8744185534969689E-04
               3.8238642553559609E-03
              -7.2110495997126690E-03
               1.6013035059117073E-04
              -1.4429934241593702E-03
              -3.6903208708996375E-03
               8.2369517241871366E-03
               1.3808198399251905E-03
              -3.6024860685693800E-03
              -7.4253532506457351E-03
              -2.1795758062286108E-03
              -1.7753142082516911E-03
               4.0626675546774436E-03
               8.6641022356382345E-03
               3.6454765601524452E-03
              -6.2740271354246261E-03
              -2.1690414157738702E-03
              -9.5747278364373769E-04
               2.4850048859683853E-03
               9.3472112139673519E-03
              -1.0139370044509547E-02
              -3.9072669371037917E-03
              -1.5445823106632214E-02
               5.8013772036030545E-03
               3.1815164872610827E-03
               7.5133074767041574E-03
               7.7816731947253828E-03
               2.1359609350786271E-03
              -9.5993680620702062E-04
               1.0483910260510173E-02
              -7.3921864179454216E-03
              -3.1866291264803842E-03
               1.2480229308114578E-02
              -2.5950368807004516E-03
              -1.7045514236513619E-03
               2.2594060820232916E-03
               1.5326139746836295E-02
               2.4565472470177915E-02
               3.7598634007316514E-03
              -2.9864941965581867E-02
               5.7230155459243488E-03
               9.7993588678820936E-03
              -8.1505915950620660E-03
               4.8907583594850054E-03
              -5.9646247417414902E-04
              -3.0085746273458536E-03
               1.9839908653896868E-01
               2.6345469774020948E-02
               2.4545009504313209E-02
               8.2150819609310387E-03
              -9.3549659906909594E-04
              -9.2959387712436767E-03
               2.4006200413935105E-01
               8.3809723002996564E-02
               3.3222693878825572E-02
              -6.2794785795816568E-03
               5.3122506055389637E-03
               3.2193765624214006E-03
               1.4601630188102567E-02
              -9.3185439269875964E-03
              -1.5349517319704767E-03
              -3.1052801153546201E-03
              -8.9601159792102678E-03
               5.4716329893564090E-03
               1.1760314298735875E-02
               2.3318630297218305E-03
               2.5128456826737813E-03
               1.9892056303145770E-03
              -5.4860890787558382E-03
               4.4884845853517706E-03
              -8.1124907042336609E-03
               1.6047952450387471E-03
               3.4765475031343952E-03
               1.4175320114036718E-03
              -3.0967474672006258E-03
               2.4757050652333963E-03
              -1.0600608355804999E-02
              -7.3851466919145443E-03
               2.8587405967430064E-03
               1.3488609649106665E-02
              -1.2031388148864817E-02
               2.1403124135106966E-02
              -4.0243499203850756E-04
              -9.6461358566144579E-04
               4.2265838471144549E-03
               4.6361359593206581E-03
              -2.1950674485575347E-04
              -2.7222116053819641E-04
              -1.1841867666031470E-02
               1.6896534198031343E-02
              -5.3590210709461147E-03
               3.1771677960751848E-03
              -5.3233264243080346E-03
               2.4966868279462972E-03
              -9.9216586086056675E-03
               9.6406464348046893E-04
               9.2521610463809009E-03
               3.0403372660131184E-03
              -2.5422180558358673E-03
               1.2534831645037486E-03
              -1.2449033889472710E-03
               6.3990683273333583E-04
              -2.9241149475859648E-03
               2.5572120229542155E-03
              -3.3600228150810090E-03
              -1.0114484077943422E-03
               1.2503152965525035E-02
              -4.7205784637646235E-03
              -3.5401516391852816E-03
               3.7275387691330145E-03
               4.8645384449861538E-04
               6.4919045531937043E-04
               4.2186201700728457E-03
               9.9203058700367362E-03
              -1.5847894638047026E-03
              -4.8527336114266521E-03
               3.8851964460681908E-04
               2.6457119858969889E-03
               1.4725658771954954E-03
              -6.0462284108429463E-04
              -5.5051231650739309E-03
              -1.0805004996709007E-02
               1.7138894012040946E-02
              -6.6731429609234710E-03
              -6.2215270671902483E-03
               6.3882047817865259E-03
               1.0832386497647180E-02
              -6.2483192881542778E-03
              -6.2650790253925498E-03
               4.6078004946855707E-03
              -6.4680537607800254E-03
              -4.6785153289882527E-03
               6.1798839726708151E-03
               9.6314059992657700E-03
               2.3875920035452544E-03
              -3.9686372842346719E-03
               8.9473402855477814E-03
               4.6424991945666723E-03
               5.1831616127525672E-04
              -2.1164564315974159E-03
              -5.0970849860279191E-05
               5.2197812103583286E-03
               3.8289455556464770E-02
              -6.4877259754597180E-03
               3.9291650429432660E-02
              -4.4995060635960671E-03
               4.0675973927071438E-03
               2.3581784087408240E-03
               6.5301081849342977E-03
               1.4671070769068838E-02
              -8.9164532887280271E-03
               8.7092650078755898E-03
              -2.1377429521718606E-02
              -1.9824219108980396E-03
               5.4131199790579722E-04
              -9.9066632113080436E-03
               8.7470224914420087E-03
              -3.0429788610896219E-03
              -1.7552480997121292E-03
               2.4778591612053019E-03
               7.8142850210049155E-03
              -1.2916576699937420E-02
               1.2356126935178485E-02
               1.8970443239522872E-03
              -7.8273336366264223E-03
               9.8233890067077941E-04
              -5.9371570401399584E-03
               5.8744279444520051E-03
              -6.2305969927721758E-03
               1.1416873772292098E-02
               8.6532769198199352E-03
              -1.2657559806851806E-02
               1.1577052991014771E-03
               1.0417441731880410E-03
               3.0786536191651139E-03
               2.1534230167427417E-02
               3.4415461856395660E-03
              -1.8328444096800872E-02
              -4.2086146193739378E-03
              -5.2817076100377678E-03
               1.5304993893985772E-02
               5.4445099146643626E-03
              -1.1788099968211502E-03
               2.5757556939965029E-03
               1.2405635945792307E-02
               1.3308701805069909E-02
               5.6684690071115047E-03
               1.2137349890315480E-03
               1.0033680375873395E-02
               2.9374846574985181E-03
              -1.0625011014036036E-02
              -3.2239820958395518E-03
               6.7492637272282118E-03
               3.4351781690796952E-03
              -1.7384178981303810E-03
               9.6901418210285333E-04
              -6.4097501104202342E-03
               5.0133009399330802E-03
               1.1695253788891361E-02
               7.4171805951473609E-03
              -4.1203278575523378E-04
               7.2436227012235427E-03
              -1.1886650406001531E-02
               6.5944100904369550E-03
               6.0258202993567610E-03
              -1.5138943161893712E-02
               5.6878331944958897E-03
               7.1193185513203491E-03
               3.2057227480070242E-03
              -2.3903599862025579E-03
               4.0475120272958692E-03
               5.7928751344178773E-03
              -3.7597571396439824E-03
              -8.4590771227404573E-03
               6.9881099783498718E-03
               1.3822291040970035E-02
              -3.0952287593243623E-03
               8.1182568651262874E-03
               1.4061629853272627E-04
              -1.3030122904046922E-02
               1.2695329615009307E-02
               7.4462176709465099E-03
              -3.8745109045037278E-03
               2.5123091177635848E-04
              -5.5517895222280608E-03
               5.4527349428141218E-03
               2.1116148741375071E-03
              -2.2499758208598709E-03
               5.1535264018753076E-03
              -7.5257643584728797E-04
              -1.6525663254750515E-02
               2.1005893169489531E-03
               2.0952801564708601E-04
              -7.5912242225206197E-03
               2.5280751225781106E-02
               2.9682184545458444E-03
              -6.6671660878707545E-03
               5.9825664555440382E-03
               3.2813457654499415E-03
               2.9735959645396269E-03
              -1.7605950203834216E-02
              -9.2290248234269592E-03
              -4.1879215308435983E-04
               4.9524085415044100E-03
               4.0909095257035235E-03
              -2.3281136046775317E-03
               1.2571691484423949E-03
              -1.2912395719112972E-03
              -4.2703907479062012E-03
              -6.7545384441957800E-03
               1.7354341948224421E-03
               4.3921558979260807E-03
               5.4807434099982356E-03
               5.2198068640481104E-03
              -2.1988838861440223E-03
              -6.0625849747554224E-04
              -1.9166456222672396E-02
              -9.1471591049225379E-03
               1.9257987649193127E-02
              -1.6824982364218887E-03
               6.2697739200094178E-03
               4.1689707016122199E-03
              -1.0482016580678113E-02
               7.4008205017332754E-03
               1.6787957471743301E-03
              -9.4150822716263412E-03
               1.1357231496846606E-02
               5.2975683079450843E-03
              -2.2614746035767089E-03
              -7.9219295575250984E-03
               6.0126898754120908E-03
              -6.4197522823288729E-03
              -2.8888404539120101E-03
               6.7723304963052790E-03
               3.6366683710848801E-04
              -7.4011409019287310E-03
              -1.8613854154196612E-03
              -5.4965073024483765E-03
               6.9916041480122960E-04
              -1.3605661339301184E-03
              -1.4553740736961609E-03
               4.5188017612632176E-03
              -1.7871008085418301E-03
              -4.5791145043890440E-03
               6.8570700261892156E-03
              -4.5596287361457689E-03
               1.5530879905207868E-03
               2.9240461985640463E-03
               6.3658008533768020E-03
              -7.0933299896457460E-05
               1.1250187248402455E-03
               3.0409675650964331E-03
               7.7018120702756860E-03
              -1.4225375281107216E-03
              -7.6047993118536642E-03
              -1.2416935120181778E-02
               7.5707747609999095E-03
               7.3011215321791331E-03
              -4.9607054500066276E-03
              -6.0148046066597367E-03
              -4.3277322698791598E-03
               4.7966379312123853E-03
              -5.1165316765163990E-03
              -1.1929258249348443E-02
              -1.5069228604979779E-02
               9.5216234414188874E-03
               1.4167707303884594E-02
               3.7362345591115281E-03
              -4.2173795705782767E-03
              -4.5255228477612472E-04
               3.4456870831532848E-03
              -1.4893666413580214E-03
              -6.3507099615914215E-03
              -7.8539943344685045E-03
               1.3696719000865266E-03
               5.6113520517817759E-03
               2.3639508244814918E-03
               6.6822003204411720E-03
               2.8062694079034074E-03
               1.4987237114232691E-02
               7.7654608274100268E-03
              -1.1102118069703085E-02
              -4.3480609230512595E-03
              -6.3856093258594423E-03
               5.6274169152128514E-03
              -1.1344995281222031E-03
              -3.0661382462229040E-03
              -1.0755169355138865E-02
              -7.1410554962090958E-03
               3.0435585246880335E-03
              -5.9642032046672679E-03
              -1.0995812313696406E-02
               5.3188986345961324E-03
               1.7643972145774900E-02
              -5.5075568942077316E-03
               7.4429626648973343E-03
               7.1853825200625049E-03
               3.0605254478576253E-03
              -9.5334227232705716E-03
               2.9882169139689650E-05
               1.3128490673914859E-02
              -1.3273218759657170E-02
               2.1976532743893829E-04
              -5.1443749368789322E-03
               9.5500776123214563E-03
              -1.3455508989645246E-03
               3.8834970683316629E-03
               1.8008506661626570E-02
               7.4737967592300431E-05
              -1.5428429029844815E-03
              -3.2565907017813762E-03
              -9.8151496849387867E-03
              -5.3283779334127295E-03
              -4.6220786418779891E-03
               3.6700404523087411E-03
               6.5082704593067081E-03
              -5.1572289257759384E-03
               2.9448000459027126E-03
              -5.0671078931571224E-03
               2.1455981606202084E-03
               7.3744315175460215E-03
               3.7209097755208564E-03
               3.1685741822502903E-03
               1.1613732958531452E-02
               9.9100976627615328E-03
              -8.9561250516092036E-03
              -3.8937479177509663E-03
               8.7806357185729622E-04
               1.2637285347432439E-02
              -4.7159679535074698E-03
               8.0173393915495272E-03
               5.1460045787757609E-03
               3.9741499806091769E-03
               4.9741786152035514E-03
              -2.2104598793853063E-02
               1.8289990835418189E-02
               6.6339125461380086E-03
              -1.5558276981990622E-02
              -3.6360907866667136E-05
               4.3761384142122460E-03
               5.6291031977260559E-03
              -6.7632960036279142E-04
               3.0671210058222246E-05
               1.4361194933226818E-02
              -4.7533983129877388E-03
              -7.2881674555664100E-03
               2.3856472602105279E-03
              -1.2329912991974447E-02
              -6.0534087861687912E-03
               2.0402758636451188E-03
               1.7274716179511958E-03
               1.2099501697131894E-02
              -8.7895891185676665E-03
              -4.0796828346124662E-03
              -3.4000645686097820E-03
               2.2673897996526967E-04
               3.1335028778177666E-03
               3.9190703036713643E-03
              -3.3346416597543178E-03
              -8.6877210329810335E-03
               9.8786166050450399E-04
              -1.2680661308304528E-03
               1.6578139062948447E-02
               5.5108041073046177E-03
              -4.7797226217446264E-03
              -1.0569146849414505E-02
               3.4563848926082875E-03
               6.1251992234947388E-03
               3.2632635151813453E-04
              -9.2565893244627752E-04
              -8.1810845740713618E-05
              -7.4776726299760126E-03
              -6.4660811809270705E-03
               1.2606920067377212E-02
              -4.1553411157570722E-03
              -1.8586960971657179E-04
               3.6559950454770475E-03
              -7.1222140506188338E-03
              -3.3387613635273753E-03
               7.5618312065925293E-03
               1.0281842382664958E-02
               5.7051877523976637E-03
               3.9818803358241355E-04
               2.7534442989761553E-03
               2.8617286809644051E-03
               4.7230697691868504E-03
              -3.9959264226792565E-03
              -4.4660342688334145E-04
              -1.9010954793180100E-03
              -6.6398391350351148E-03
               2.8673987619156922E-03
               7.6230284629456965E-04
               6.2122716650575534E-03
               3.7935035799822707E-03
               1.2462753517974415E-03
               2.4558989196320270E-03
              -5.6396556307920891E-03
              -1.9525749191976575E-03
               3.8170709470594908E-03
              -8.4262235565986474E-04
              -3.0908693313774446E-03
               1.4023824257023585E-03
              -9.1648518249631671E-03
               4.9585875046315011E-03
              -3.1655826278284252E-03
              -8.3561024030364642E-03
              -1.2694434651937783E-03
               6.6955343056056939E-03
               1.8164520645156390E-02
               7.6632291572448141E-03
              -6.4851356303005057E-03
         &END THERMOSTAT_ENERGY
         &RNG_INIT
Wiener process for Thermostat # 1        1 F T T  -4.3866331554119464E-01        3463026290.0         996283881.0        3077134961.0        1575188103.0         352198642.0        1255594993.0             12345.0             12345.0             12345.0             12345.0             12345.0             12345.0             12345.0             12345.0             12345.0             12345.0             12345.0             12345.0
Wiener process for Thermostat # 2        1 F T T   6.1664168869435698E-01         581397078.0        3867423482.0         327967633.0        1486938113.0          26429212.0        4093174459.0        3692455944.0        1366884236.0        2968912127.0         335948734.0        4161675175.0         475798818.0        3692455944.0        1366884236.0        2968912127.0         335948734.0        4161675175.0         475798818.0
Wiener process for Thermostat # 3        1 F T T   2.0518696979926636E+00        1062843694.0        3278483557.0        2630284801.0         342499437.0         508306288.0         570022504.0        1015873554.0        1310354410.0        2249465273.0         994084013.0        2912484720.0        3876682925.0        1015873554.0        1310354410.0        2249465273.0         994084013.0        2912484720.0        3876682925.0
Wiener process for Thermostat # 4        1 F T T   8.6483655468840070E-01         858988242.0         878260951.0        1341305949.0        1687735708.0        1261279903.0        1615458589.0        2338701263.0        1119171942.0        2570676563.0         317077452.0        3194180850.0         618832124.0        2338701263.0        1119171942.0        2570676563.0         317077452.0        3194180850.0         618832124.0
Wiener process for Thermostat # 5        1 F T T  -7.2623034709222295E-02        3503246388.0        3640749438.0          80160185.0        4050541932.0        1809135917.0         826251710.0        1597262096.0        3906379055.0        3312112953.0        1016013135.0        4099474108.0         275305423.0        1597262096.0        3906379055.0        3312112953.0        1016013135.0        4099474108.0         275305423.0
Wiener process for Thermostat # 6        1 F T T   2.6094790259997280E+00        1648662560.0         298744963.0         276080774.0        3452610735.0        2129471280.0        4132861437.0          97147054.0        3131372450.0         829345164.0        3691032523.0        3006063034.0        4259826321.0          97147054.0        3131372450.0         829345164.0        3691032523.0        3006063034.0        4259826321.0
Wiener process for Thermostat # 7        1 F T T   1.3118545096244869E+00        4025695046.0        1027992126.0        3217973651.0        2155997853.0        1780084567.0        1907814450.0         796079799.0        2105258207.0         955365076.0        2923159030.0        4116632677.0        3067683584.0         796079799.0        2105258207.0         955365076.0        2923159030.0        4116632677.0        3067683584.0
Wiener process for Thermostat # 8        1 F T T   7.1524753302764935E-02        2631328646.0          66904958.0        3191287979.0        3452779318.0        2048731614.0        3759050068.0        3281794178.0        2616230133.0        1457051261.0        2762791137.0        2480527362.0        2282316169.0        3281794178.0        2616230133.0        1457051261.0        2762791137.0        2480527362.0        2282316169.0
Wiener process for Thermostat # 9        1 F T T  -1.0980465140389938E-01        1977246253.0        1903248984.0        3508262652.0        2466127224.0         300284070.0         767034957.0        3777646647.0        1837464056.0        4204654757.0         664239048.0        4190510072.0        2959195122.0        3777646647.0        1837464056.0        4204654757.0         664239048.0        4190510072.0        2959195122.0
Wiener process for Thermostat # 10       1 F T T   1.9081094228418396E+00         405211316.0        3215252316.0        3029076279.0        3899943421.0         886526099.0         586515832.0        4215590817.0        3862461878.0        1087200967.0        1544910132.0         936383720.0        1611370123.0        4215590817.0        3862461878.0        1087200967.0        1544910132.0         936383720.0        1611370123.0
Wiener process for Thermostat # 11       1 F T T  -5.3344054384789541E-01        3450000619.0        1059116059.0        3916567347.0         635813254.0        3901690603.0        3696418470.0        1683636369.0         362165168.0         814316280.0         869382050.0         980203903.0        2062101717.0        1683636369.0         362165168.0         814316280.0         869382050.0         980203903.0        2062101717.0
Wiener process for Thermostat # 12       1 F T T   8.9448207812820613E-01        1696219248.0        1783691089.0        1685873716.0        1285524479.0        2726140602.0        4269630803.0         272317999.0         166758548.0         310112982.0         201045826.0        1680231254.0         118290799.0         272317999.0         166758548.0         310112982.0         201045826.0        1680231254.0         118290799.0
Wiener process for Thermostat # 13       1 F T T  -1.0297203341400047E+00        4019568919.0        3484227797.0         947541978.0        4224885921.0        2127446270.0         502669027.0        2245755202.0        1652682525.0        2865544364.0         721509566.0         209733568.0         592362218.0        2245755202.0        1652682525.0        2865544364.0         721509566.0         209733568.0         592362218.0