 # Version information for this restart file 
 # current date 2024-03-19 21:17:37.849
 # current working dir /home/mp6576/comp-class-2023/comp-lab-class-2023/Week12/Runs/Proton
 # Program compiled at                              Sat Dec 12 18:27:15 EST 2020
 # Program compiled on                                         cs001.nyu.cluster
 # Program compiled for                                                nyu-intel
 # Source code revision number                                       git:8c64c6e
 &GLOBAL
   PRINT_LEVEL  LOW
   PROJECT_NAME proton_aimd_1ns_every0.5fs
   RUN_TYPE  MD
   WALLTIME 21600
 &END GLOBAL
 &MOTION
   &GEO_OPT
     OPTIMIZER  BFGS
     MAX_ITER  100
     MAX_DR     3.0000000000000001E-03
     &BFGS
     &END BFGS
   &END GEO_OPT
   &MD
     ENSEMBLE  NVT
     STEPS  2000
     TIMESTEP     4.9999999999999994E-01
     STEP_START_VAL  1997
     TIME_START_VAL     9.9849999999998249E+02
     ECONS_START_VAL    -1.1018977434131896E+03
     TEMPERATURE     3.0000000000000000E+02
     &THERMOSTAT
       TYPE  GLE
       REGION  MASSIVE
       &GLE
         NDIM  5
         A_SCALE     1.0000000000000000E+00
         A_LIST     1.8595758612559999E+02    2.7263853498399998E-01    1.1526100454610001E+01   -3.6414578262600003E+01 \
             2.3173375816020001E+02
         A_LIST    -2.7809524712060002E-01    8.5951591808710006E-05    7.2189048017650004E-01   -1.9844539343859999E-01 \
             4.2409257583420001E-01
         A_LIST    -1.4825808131210000E+01   -7.2189048017650004E-01    1.3590902121280000E+00    5.1498896280349999E+00 \
            -9.9949268450990001E+00
         A_LIST    -1.0372189126880000E+01    1.9844539343859999E-01   -5.1498896280349999E+00    2.6661910891169999E+01 \
             1.1507715495310000E+01
         A_LIST     2.1801346360420001E+02   -4.2409257583420001E-01    9.9949268450990001E+00   -1.1507715495310000E+01 \
             3.0958394565589998E+02
         &THERMOSTAT_ENERGY
               2.2336386440186488E-03
               5.3363628154629332E-04
               2.5159808275078081E-03
              -1.1201446958682484E-03
              -1.4810625810192176E-02
               1.1658960271243631E-03
              -3.7522126528105769E-03
               1.7177656892053011E-03
               1.1053558313191799E-02
               2.1382016024305687E-04
               7.4420583429044753E-03
               4.6070204777495932E-03
               8.3797439409476430E-03
              -9.3937604406769386E-03
               9.7814353958271243E-03
              -7.7426107414247970E-03
              -5.9853097261205728E-03
              -7.0890937863569981E-03
               2.1674174139273733E-03
               1.9334683029463543E-04
               5.8498717415793808E-03
               9.6828371947790832E-03
              -1.2512902170105721E-02
               2.3627653563835656E-03
               7.5051677408324415E-03
              -3.6958698446948098E-03
              -2.1082545403248395E-03
               7.0919945843973798E-04
               1.5612748784183793E-03
               6.8476163410540489E-04
              -7.8730624839034504E-03
              -3.3154789627926661E-03
               4.3878388851382559E-03
               3.2010489041745761E-03
              -7.9836173778510058E-03
               1.3146657809883097E-02
              -1.0160066522794809E-03
              -3.2586364397993663E-03
               1.0341520755683732E-03
               1.1521854571198212E-03
              -2.5903134435053708E-04
              -1.2609350271829124E-02
              -4.0367478109550985E-03
               8.2710149000508448E-03
               4.9842090505781431E-03
               6.6100090355069975E-03
               5.7616800549388503E-04
              -3.8228430861796110E-03
               9.5576735079192683E-03
              -6.1395724613108622E-03
               9.3229889042177952E-03
               8.4858364280707664E-03
              -2.3801724484390063E-03
               8.7034317681805150E-03
              -6.1188485718121346E-03
              -8.1224118575558052E-04
               3.1024234820782159E-04
               4.8132015486242619E-03
               3.0267704895753614E-03
               1.1355574347024126E-05
              -7.4493026999891574E-03
              -2.3981611522216990E-03
               1.9003276596573873E-02
               1.9306118401428662E-04
               1.5127299723579290E-03
               5.6616186348225515E-03
              -9.7199591640063036E-03
               5.7833896553080430E-03
               1.7175620516393469E-02
              -1.9783713094315564E-03
              -6.2401447906483389E-03
              -2.0164504986259018E-03
              -7.4818145989856205E-03
               6.7299411541055397E-03
              -2.9751481334998834E-03
              -1.5438506298558979E-02
               6.7061408975274987E-03
               2.3719042209452302E-02
               1.2728012579553520E-02
              -8.0989199063206986E-03
              -1.7150341471642160E-03
              -1.1208214679527786E-02
               5.7539060268615785E-03
               3.9478852067168953E-03
              -1.5498949808565390E-03
               5.5903233910374614E-03
               5.5384103348373685E-03
              -1.3816447905979093E-02
               3.9662485745260122E-03
              -6.1476819950847996E-03
               1.3939833715890040E-04
              -3.4562489643858562E-03
              -8.8206939826554996E-04
              -8.1713404570241989E-03
              -1.1716717509204895E-02
               8.2917450550860049E-03
               3.5547588275822240E-03
              -2.0139837946578361E-03
               1.0312043677322321E-02
               1.9118379619732487E-03
               9.4053681089421963E-03
              -8.8403942763215886E-03
              -5.0804094227216660E-03
               1.4168821240999462E-02
              -3.7999391627704057E-03
               8.4872316570328201E-03
               1.4810320435953532E-02
               1.6196416289328809E-02
               5.2338727040078534E-03
              -5.4039436303844612E-03
               1.0568984463593123E-03
              -2.5932078622200520E-04
               1.1105333906675202E-02
              -1.2437199543724211E-03
               1.9760322928984867E-03
              -8.5814528083998330E-03
              -4.3889397891958273E-03
               4.7521473736180861E-03
              -2.1742038884913898E-03
               1.6802467716042443E-03
               6.1866599453875943E-03
               6.7366062671831498E-03
              -8.1715023279200719E-03
              -6.4092255691998367E-03
               2.7735735929008470E-03
              -1.7900787989948211E-03
               3.8480528931713596E-03
              -2.7345639793209062E-03
              -3.6806670999114510E-04
               3.6816723801052550E-03
              -8.0451566797359424E-03
               3.9098994510754713E-04
              -1.5060204441984600E-03
              -4.1029968178426324E-03
               9.1984852087363470E-03
               2.6567897566402059E-04
              -4.9181983077796199E-03
              -8.9552167744808321E-03
              -2.3262943187380152E-03
              -1.8533430927551698E-03
               4.8174610388285518E-03
               9.1445608529821046E-03
               4.3468018339612247E-03
              -6.5391522732782710E-03
              -2.4255984856970158E-03
              -1.2140013297166066E-03
               2.1177792762418564E-03
               9.2865595538568352E-03
              -1.0510352097391340E-02
              -4.8807006184564787E-03
              -1.5331539914815466E-02
               5.6318021026781672E-03
               2.4123136150000987E-03
               6.4739364247697554E-03
               7.4719124003638773E-03
               1.4771724906337440E-03
              -1.3005205017644825E-03
               9.8336427038773350E-03
              -7.8241831223004286E-03
              -2.8776632111053415E-03
               1.2688686178323227E-02
              -2.5739823957227712E-03
              -1.6143150901108782E-03
               2.2270174181624825E-03
               1.6885832925749376E-02
               2.3603232877292477E-02
               4.8482464542564090E-03
              -2.9918111706456932E-02
               5.8130770767586860E-03
               9.8050783561118710E-03
              -9.6690340504408112E-03
               5.0024573099015117E-03
               1.3934758080485853E-04
              -3.0664096593765659E-03
               1.9826632008101225E-01
               2.5848764333459208E-02
               2.2733078777456367E-02
               8.2060872414068519E-03
              -1.0988846418890539E-03
              -8.9008426190589386E-03
               2.4005902398369672E-01
               8.3841707061753062E-02
               3.3269178435175469E-02
              -6.3996835054262232E-03
               5.7102284947039613E-03
               1.7148999383718902E-03
               1.5257836033153026E-02
              -7.9865822088595381E-03
              -1.5609311879077052E-03
              -3.2121532679802336E-03
              -8.8252136378450044E-03
               5.2414029117397931E-03
               1.0442393232390844E-02
               1.9173118268653549E-03
               1.9089598272527316E-03
               1.9633379936281922E-03
              -5.6305838386259575E-03
               4.9897526958464569E-03
              -7.6874082279100309E-03
               7.0076879573065384E-04
               2.6664020344320935E-03
               1.8267989241696825E-03
              -2.5440426559565979E-03
               2.4566924109947507E-03
              -1.1350831614922017E-02
              -7.1036833767309229E-03
               2.3984210495040957E-03
               1.3508475010552284E-02
              -1.2683317098338772E-02
               2.1373016370350134E-02
              -4.2769027146422501E-04
              -1.6651506758873411E-03
               4.4327776805698285E-03
               4.6372655220514539E-03
              -4.2534315893441609E-05
              -3.9652861442286442E-04
              -1.1476621417443530E-02
               1.6820034497698741E-02
              -4.8376224556468681E-03
               3.1671782260304857E-03
              -5.8065029415437178E-03
               1.1533638090998558E-03
              -1.0684863369309553E-02
               6.0051907704430679E-04
               8.6735597422921192E-03
               2.9453533334036523E-03
              -2.5058625083972919E-03
               9.0816725945959810E-04
              -1.7719190772936108E-03
               6.3032845856911832E-04
              -2.3553407544676472E-03
               1.6365641187387021E-03
              -3.4245624861065954E-03
              -6.7944799443882167E-04
               1.4736509759625515E-02
              -4.8892127965187489E-03
              -3.8505553532149355E-03
               3.6193169865506025E-03
               5.0204970939439226E-04
               3.7581484957618580E-04
               4.2165462790442190E-03
               1.0320283517355375E-02
              -1.5202761697819260E-03
              -5.1822505967729915E-03
              -5.0908355556890893E-04
               2.3246046657167019E-03
               1.9986693237030542E-03
              -1.4613888855672356E-04
              -5.5222380993341022E-03
              -1.1732751009608400E-02
               1.7217489178636147E-02
              -5.9074502283003993E-03
              -6.2038966846221901E-03
               6.5364187077077210E-03
               1.0697632449430268E-02
              -6.0918317667542207E-03
              -6.2986709940858589E-03
               4.7447364763757490E-03
              -6.4027156079214560E-03
              -2.7275373309164257E-03
               6.2092363248121649E-03
               9.2555650873283411E-03
              -1.9105556721476982E-04
              -3.6357437324079419E-03
               9.8098983642083849E-03
               4.3157718983435839E-03
               2.9041837008719285E-04
              -1.4246360114524379E-03
               2.7094827281339299E-04
               5.1867357927039351E-03
               3.8240495307991888E-02
              -6.6992864936019870E-03
               3.8959945361625913E-02
              -5.8827848738595900E-03
               3.6780129775115973E-03
               2.3083268926795326E-03
               6.5787439210815484E-03
               1.4714427077129491E-02
              -9.0493698770999966E-03
               8.6418621944581078E-03
              -1.9355135662261724E-02
              -2.6315238297490800E-03
               5.7149869093093880E-04
              -1.0485963320151830E-02
               8.5547840959959431E-03
              -3.2941147881781541E-03
               7.5716823115734339E-04
               2.4851576776243954E-03
               7.8982826511487247E-03
              -1.2416848763031531E-02
               1.0363734155114027E-02
               1.6968166969401365E-03
              -7.7287700531330538E-03
               2.1001540317253922E-05
              -5.4549756750155200E-03
               5.3266042188683119E-03
              -4.5260233732115664E-03
               1.1666829876431662E-02
               8.6787808340600195E-03
              -1.2742032399901432E-02
               1.0328735525053174E-03
               9.6066452553973496E-04
               3.1205497204405972E-03
               2.1813960193500733E-02
               3.3989897731257360E-03
              -1.8180539682743174E-02
              -4.5370903105718804E-03
              -6.1232093514562479E-03
               1.5246639273931479E-02
               5.3605779978069734E-03
              -7.8541282971658860E-04
               2.3556929522971369E-03
               1.1324332550781750E-02
               1.4330180621934894E-02
               6.1441683045301461E-03
               3.3034353651517498E-04
               9.9390206053311288E-03
               2.5146760142136602E-03
              -1.1071761045012899E-02
              -3.1665865622799378E-03
               5.6625640771190110E-03
               4.1527353048393693E-03
              -1.0427290702508304E-03
               9.3385968117420633E-04
              -6.2789907740808983E-03
               5.1759731195082257E-03
               1.1982439478801924E-02
               7.1399202662945273E-03
              -3.4656308784159428E-04
               7.1653343817947380E-03
              -1.4738943448757123E-02
               6.2532254503322995E-03
               5.5599968366075178E-03
              -1.4964445763933805E-02
               5.5505435239414898E-03
               7.4167077408945643E-03
               3.1449998820340407E-03
              -1.8830774751026152E-03
               3.8441413105105475E-03
               6.7726702518389401E-03
              -2.8291506212910511E-03
              -8.1804338392225118E-03
               6.5949150393392816E-03
               1.3963277880860716E-02
              -3.1807016988726206E-03
               7.6086319776111234E-03
               2.9821201837920523E-04
              -1.3549324839608730E-02
               1.2547682606208151E-02
               7.2575387306701451E-03
              -4.2783241307701499E-03
               3.1086721641215831E-04
              -4.8993528875581069E-03
               5.1677941818642856E-03
               2.1124867397171974E-03
              -2.2764866513523808E-03
               5.2198758445787556E-03
              -8.6292285659963098E-04
              -1.6201990104165689E-02
               1.8639812338649300E-03
               9.4314358162936156E-04
              -8.0272626650458746E-03
               2.4675235830402945E-02
               3.0460394789448815E-03
              -6.7293141087310720E-03
               6.4500940175224817E-03
               3.3198081357185458E-03
               3.0031579047139589E-03
              -1.7726435464505072E-02
              -9.1720769246090711E-03
              -3.7047454829018905E-04
               3.4492986020913307E-03
               4.1007988615214090E-03
              -1.9597086892328467E-03
               1.1382292119181201E-03
              -2.2566223666213451E-03
              -4.2636089028045832E-03
              -6.7378952015671126E-03
               1.4023589330862242E-03
               4.2312346586064762E-03
               5.5054846701695428E-03
               5.3416807496589258E-03
              -1.6669066781055564E-03
              -8.9404483070778086E-04
              -1.9773012086802967E-02
              -9.7549213966650079E-03
               1.9440208421419809E-02
              -1.7805939635215705E-03
               5.7723758669861085E-03
               4.3443846673672853E-03
              -1.0386401436352295E-02
               7.0298398358316526E-03
               2.0724015713089491E-03
              -9.7423688485756676E-03
               1.1405312630834800E-02
               5.1101616688352357E-03
              -2.4587099070571506E-03
              -7.7926638238182558E-03
               4.8940779464417949E-03
              -6.0418100384772725E-03
              -2.4692171421692171E-03
               6.1905212740468191E-03
               5.0761361466541315E-04
              -7.2545501543281911E-03
              -2.0198045482253250E-03
              -6.0890687583000577E-03
               1.4905245165734180E-03
              -1.2828128193591948E-03
              -1.3635967233298942E-03
               4.4324267774895516E-03
              -2.0059280052032247E-03
              -4.6271484018241011E-03
               6.8106395754702065E-03
              -4.5989462117190594E-03
               1.2908726765461166E-03
               2.2042928241822511E-03
               6.5959814337192973E-03
              -2.1144811718737581E-04
               1.0290897132220287E-03
               2.8835453813265436E-03
               7.5313934910788815E-03
              -1.4011290600701907E-03
              -7.7956598853056681E-03
              -1.2841335866718496E-02
               7.3335024944407249E-03
               8.2935426208677505E-03
              -4.7984930058371919E-03
              -5.3938818285804990E-03
              -2.9127147719387406E-03
               4.8455603031426417E-03
              -5.7098102381335754E-03
              -1.1923555318560604E-02
              -1.4824104035444334E-02
               9.2932411941515341E-03
               1.4118647271237515E-02
               8.7079710422640678E-04
              -4.2972631771941178E-03
               4.6097640592851030E-04
               3.4075950275648417E-03
              -1.0751060565123423E-03
              -5.2532026991035053E-03
              -7.4734744902405937E-03
               1.9979965214345623E-03
               6.8860720071813502E-03
               2.3266445207167220E-03
               6.8398145167263870E-03
               1.8212253772688482E-03
               1.4727556235433186E-02
               8.1779091712160940E-03
              -1.1052251798529349E-02
              -4.1210659499120641E-03
              -6.5206313174497148E-03
               5.6092743039972432E-03
              -2.3888568961992190E-03
              -2.7583231630382041E-03
              -1.0851817747389301E-02
              -7.2494870597356147E-03
               2.9447940964197751E-03
              -6.3930946961304365E-03
              -1.1777535000166595E-02
               4.5451667519989195E-03
               1.7643045593257901E-02
              -5.7788907563618465E-03
               6.7306086391798903E-03
               7.3995387258992485E-03
               3.2696322353005878E-03
              -9.5321169047620641E-03
              -7.9200668741249958E-05
               1.3121456617752098E-02
              -1.2848699282729836E-02
              -2.6264426840541094E-04
              -5.1080076245841235E-03
               9.7861826590287162E-03
              -1.4083410644575548E-03
               4.0992945277908283E-03
               1.6920579637381528E-02
              -1.1658999495709233E-04
              -9.5884749642761698E-04
              -3.0249532767950872E-03
              -1.0121870778799492E-02
              -6.0243068642213257E-03
              -5.8567089157380188E-03
               5.4157462914357904E-03
               6.2380742314062272E-03
              -3.5422235315242679E-03
               2.5298490479310851E-03
              -5.1418049975031502E-03
               2.1078851569635128E-03
               7.5145405211594941E-03
               3.1944278327638289E-03
               3.1626826182862113E-03
               1.1874216064743611E-02
               1.0080852683219090E-02
              -9.1962188471222811E-03
              -4.1801404661057197E-03
              -3.1985230694931257E-04
               1.0844878380090160E-02
              -5.2181448502069665E-03
               7.6214740261614164E-03
               5.2503799956565454E-03
               1.4030314440752491E-03
               4.9805723839619238E-03
              -2.2165664288313271E-02
               1.8274274844289777E-02
               6.5647921731759769E-03
              -1.5827566285035399E-02
               9.9398113603786913E-05
               4.6161833169181890E-03
               5.7750522112278617E-03
              -6.7009136942630047E-04
              -9.9137964697797588E-04
               1.4651844623754733E-02
              -4.8085266224266645E-03
              -7.1587106961214265E-03
               2.3480226557671970E-03
              -1.2091898984433158E-02
              -6.3900655299498959E-03
               1.8724514962844808E-03
               2.5622236640600853E-03
               1.1887795572331807E-02
              -9.0585479744584255E-03
              -4.7396449457171421E-03
              -3.2425388047947865E-03
               2.0197617337800101E-04
               2.6806933980305005E-03
               3.9306580219727353E-03
              -3.2951466868728139E-03
              -8.6868751612465111E-03
              -4.3419365035554658E-04
              -1.9481139701308940E-03
               1.6592864158839125E-02
               5.6824474899161486E-03
              -5.0086006878450546E-03
              -1.0581959778013237E-02
               2.6782526847285047E-03
               6.2705805893375583E-03
               3.4072746202816397E-04
              -7.3633744013709820E-04
              -1.2999983772255455E-04
              -6.4809478980597619E-03
              -6.3679705592843989E-03
               1.2950617283985185E-02
              -4.0441495652680142E-03
              -6.2767908801567029E-04
               3.6562454500407892E-03
              -7.1579502594581422E-03
              -2.9476362190330721E-03
               7.5971459696291066E-03
               1.0676271136491600E-02
               5.9413641224594586E-03
              -9.9392486794202444E-04
               3.4856099240698560E-03
               2.8551285236489061E-03
               4.5637404436289254E-03
              -3.9552382485571053E-03
              -4.3901199851154829E-04
              -2.7680362539756259E-03
              -6.4225543539795250E-03
               2.3803587094239288E-03
               5.7399096800107570E-04
               6.3240848428928768E-03
               3.6111147460987812E-03
               1.2290114565851927E-03
               2.4082523478933296E-03
              -3.1478783305132815E-03
              -5.9380164457921794E-04
               4.0554788165749010E-03
              -8.4560932944124673E-04
              -2.9064536439550358E-03
               2.3508740477111889E-03
              -9.5052415248917891E-03
               4.8665818750492666E-03
              -4.0805242665614989E-03
              -8.5328235903800037E-03
              -1.2119749334693623E-03
               6.3358735398370003E-03
               1.8459982967575995E-02
               7.7674872192190561E-03
              -6.4278008527800879E-03
         &END THERMOSTAT_ENERGY
         &RNG_INIT
Wiener process for Thermostat # 1        1 F T T   3.7280401166127353E-01        2396824340.0        1285798124.0        1970812289.0        4262378425.0        2500496477.0        3105761546.0             12345.0             12345.0             12345.0             12345.0             12345.0             12345.0             12345.0             12345.0             12345.0             12345.0             12345.0             12345.0
Wiener process for Thermostat # 2        1 F T T  -2.8031459711754392E-01        1517340215.0         764337745.0        1777988352.0        1272471177.0        3093987526.0        2495380513.0        3692455944.0        1366884236.0        2968912127.0         335948734.0        4161675175.0         475798818.0        3692455944.0        1366884236.0        2968912127.0         335948734.0        4161675175.0         475798818.0
Wiener process for Thermostat # 3        1 F T T   7.0414863813957229E-01        1874984675.0        3540139467.0        3102430019.0        1608426380.0         643336117.0        1230365417.0        1015873554.0        1310354410.0        2249465273.0         994084013.0        2912484720.0        3876682925.0        1015873554.0        1310354410.0        2249465273.0         994084013.0        2912484720.0        3876682925.0
Wiener process for Thermostat # 4        1 F T T   2.2606224243119818E-01        3416187057.0        1637601412.0         393440280.0        2948182120.0        3407482107.0        2343296956.0        2338701263.0        1119171942.0        2570676563.0         317077452.0        3194180850.0         618832124.0        2338701263.0        1119171942.0        2570676563.0         317077452.0        3194180850.0         618832124.0
Wiener process for Thermostat # 5        1 F T T  -1.0267294306732384E+00         315072143.0        4137263975.0        4196656129.0        1282237791.0        3639735469.0        1937530485.0        1597262096.0        3906379055.0        3312112953.0        1016013135.0        4099474108.0         275305423.0        1597262096.0        3906379055.0        3312112953.0        1016013135.0        4099474108.0         275305423.0
Wiener process for Thermostat # 6        1 F T T   9.2624835653208748E-01        3222219212.0        3105331301.0        2094058484.0        2511776071.0        3719186732.0        3505559269.0          97147054.0        3131372450.0         829345164.0        3691032523.0        3006063034.0        4259826321.0          97147054.0        3131372450.0         829345164.0        3691032523.0        3006063034.0        4259826321.0
Wiener process for Thermostat # 7        1 F T T  -4.6721006089689310E-01        2921304001.0        3534845789.0         764942181.0        2980414860.0        2807768180.0         274774080.0         796079799.0        2105258207.0         955365076.0        2923159030.0        4116632677.0        3067683584.0         796079799.0        2105258207.0         955365076.0        2923159030.0        4116632677.0        3067683584.0
Wiener process for Thermostat # 8        1 F T T   4.8809173354813140E-01        3327178806.0        3682317356.0        2663069382.0         319044460.0        3975670735.0         562702070.0        3281794178.0        2616230133.0        1457051261.0        2762791137.0        2480527362.0        2282316169.0        3281794178.0        2616230133.0        1457051261.0        2762791137.0        2480527362.0        2282316169.0
Wiener process for Thermostat # 9        1 F T T  -8.1805399140306756E-01         433221438.0         349071730.0        2033385903.0        2639944804.0        3988392127.0        3801627598.0        3777646647.0        1837464056.0        4204654757.0         664239048.0        4190510072.0        2959195122.0        3777646647.0        1837464056.0        4204654757.0         664239048.0        4190510072.0        2959195122.0
Wiener process for Thermostat # 10       1 F T T  -2.7062828385550008E-01        2290601073.0        1666814614.0        3289919364.0        2930088785.0        1500929831.0        1860303943.0        4215590817.0        3862461878.0        1087200967.0        1544910132.0         936383720.0        1611370123.0        4215590817.0        3862461878.0        1087200967.0        1544910132.0         936383720.0        1611370123.0
Wiener process for Thermostat # 11       1 F T T   6.8652417552969780E-01        2151060734.0         580174056.0        1748210725.0         399674445.0        1879492130.0        2741776977.0        1683636369.0         362165168.0         814316280.0         869382050.0         980203903.0        2062101717.0        1683636369.0         362165168.0         814316280.0         869382050.0         980203903.0        2062101717.0
Wiener process for Thermostat # 12       1 F T T   1.2985463821691814E+00        3478492904.0        1830493925.0          17364685.0        2058676739.0        2676153401.0        4087350495.0         272317999.0         166758548.0         310112982.0         201045826.0        1680231254.0         118290799.0         272317999.0         166758548.0         310112982.0         201045826.0        1680231254.0         118290799.0
Wiener process for Thermostat # 13       1 F T T   2.0061703114922356E+00        2097018817.0        1300727704.0         367347443.0         582130443.0        2824054692.0        3111690587.0        2245755202.0        1652682525.0        2865544364.0         721509566.0         209733568.0         592362218.0        2245755202.0        1652682525.0        2865544364.0         721509566.0         209733568.0         592362218.0